%NProcShared=8
%Mem=48GB
%Chk=opt.chk
#p PBEPBE/6-31+G(d,p) Opt=(CalcFC,Tight,MaxCycles=250) EmpiricalDispersion=GD3BJ SCF=(XQC,Tight) Integral=UltraFine NoSymm

PCy3_PFHpA_alternate_oxygen__unsolvated | opt

0 1
C   0.1110865041 -2.7942378084  0.3332582744
C  -0.3301023840 -3.6727578635 -0.8318547640
C  -1.7583104722 -4.1846059876 -0.6545207639
C  -2.6473080080 -3.2318069829  0.1415309407
C  -2.2072386727 -1.7812592718 -0.0122724105
C  -0.7805542485 -1.5490717949  0.5179891753
P   0.0000000000  0.0000000000  0.0000000000
C   1.4081210239  0.3062430990  1.0629130539
C   1.2465849868  0.4035577703  2.5576950091
C   1.2156425803  1.6547996161  3.1888335196
C   1.0752572299  1.7508515140  4.5745265020
C   0.9735109433  0.5962903038  5.3465305269
C   1.0184509798 -0.6535677244  4.7335110417
C   1.1592757748 -0.7489796921  3.3476923340
C   0.6449956093 -0.1753573578 -1.6898805903
C  -0.4221572465 -0.1210823717 -2.7931779601
C   0.1546172482 -0.3303393839 -4.1910756040
C   1.2720139992  0.6575985639 -4.4913449982
C   2.3594116448  0.5842882235 -3.4299150795
C   1.7944753618  0.7942233744 -2.0271934131
C  -1.1920360467  1.3390109355  0.0956418175
C  -1.9161530935  1.4848334369  1.4392731468
C  -3.1346341165  2.4049523734  1.3285755697
C  -2.9319393344  3.5558212187  0.3422438890
C  -1.4593456288  3.9040299780  0.1790316539
C  -0.6456242184  2.7125743690 -0.3357423585
H   0.0715223308 -3.3976193066  1.2498898155
H   1.1592052653 -2.5083791838  0.2040875409
H  -0.2652440025 -3.1042807500 -1.7663601827
H   0.3519017706 -4.5236761582 -0.9417423574
H  -1.7456025936 -5.1585014349 -0.1503021784
H  -2.1942793901 -4.3604020849 -1.6454647613
H  -2.6156064217 -3.5056281292  1.2037737142
H  -3.6892868404 -3.3485641803 -0.1774845288
H  -2.2894209672 -1.4937493964 -1.0604660155
H  -2.9120661782 -1.1380801649  0.5242889286
H  -0.8974764951 -1.4314086286  1.6019195109
H   2.1547966523 -0.4736849863  0.8664716245
H   1.8888621034  1.2324970241  0.7278616028
H   1.2938869250  2.5675314600  2.6022099486
H   1.0456291141  2.7274454096  5.0501824177
H   0.8644323814  0.6701926314  6.4250392827
H   0.9480262781 -1.5562844224  5.3344699873
H   1.2083885351 -1.7338201032  2.8909479511
H   1.0907946019 -1.1762424621 -1.7228891150
H  -0.9437279880  0.8411096371 -2.7628480321
H  -1.1772582184 -0.8895465276 -2.6274566947
H  -0.6415361677 -0.2235091142 -4.9365939540
H   0.5366725615 -1.3550770660 -4.2777667987
H   0.8639161123  1.6749230282 -4.5315066109
H   1.7007294116  0.4443853066 -5.4768877761
H   3.1258163745  1.3405333331 -3.6342824348
H   2.8553930690 -0.3929686360 -3.4799390026
H   1.4549669132  1.8293265823 -1.9290591545
H   2.6145514477  0.6657043639 -1.3139003577
H  -1.9651348439  1.0640460595 -0.6342240089
H  -2.2297801583  0.5189600350  1.8423138973
H  -1.2338179236  1.9064080165  2.1812181138
H  -3.3643913738  2.8046411076  2.3237084933
H  -4.0129253518  1.8249566026  1.0203618660
H  -3.3443456406  3.2738099493 -0.6347785116
H  -3.4970214689  4.4330446724  0.6768052831
H  -1.0559709654  4.2290118329  1.1465219967
H  -1.3431056060  4.7514340457 -0.5061195255
H  -0.6221259669  2.7511276094 -1.4306923258
H   0.3909957790  2.8364943487 -0.0066794780
O   4.3316554422 -0.0842501933 -2.4347950132
C   3.8128741332 -1.1104149084 -1.9107032517
O   2.8157920472 -1.1645833333 -1.1302923545
C   4.4675766090 -2.4619892945 -2.2121838830
F   3.5177800130 -3.4342773485 -2.3550040771
F   5.1360894340 -2.4236428737 -3.4044305275
C   5.4046785781 -2.8043320426 -1.0851533699
F   6.4280447024 -1.8948335305 -1.0127661495
F   6.0495525000 -3.9800428631 -1.4079474174
C   4.8129567298 -2.9834581917  0.3092618807
F   4.4377073773 -1.7838205944  0.8375831219
F   5.8533335099 -3.3739002639  1.1366226519
C   3.6959463888 -4.0061938460  0.5022823333
F   2.5512054495 -3.6614776079 -0.1301794869
F   3.3711929370 -4.0093939097  1.8394492130
C   4.0824805295 -5.4157550982  0.1135226195
F   5.2483188224 -5.7839234107  0.7202595784
F   4.3121260910 -5.5201900174 -1.2227275040
C   2.9788026968 -6.3799314143  0.5103361918
F   3.3044061812 -7.6553030881  0.1618514116
F   2.7565109269 -6.4050619538  1.8464962497
F   1.7957620128 -6.1138097415 -0.0874641026

