%NProcShared=8
%Mem=30GB
%Chk=opt.chk
#p PBEPBE/6-31+G(d,p) Opt=(CalcFC,Tight,MaxCycles=250) EmpiricalDispersion=GD3BJ SCF=(XQC,Tight) Integral=UltraFine NoSymm SCRF=(SMD,Solvent=Water)

A400_PFNA_head_tangential__water | opt

0 1
C  -0.5566950646 -1.3439910110  0.4592976295
N   0.0000000000  0.0000000000  0.0000000000
C  -0.9594641671  1.0996553712  0.4304987401
C   1.3485241254  0.2247909877  0.6679034873
C   0.1420150732 -0.0422755299 -1.5364310404
C   0.6810559772  1.1994261314 -2.2010522821
C  -0.1877259808  2.2128930114 -2.6370155881
C   0.3139375804  3.3661586663 -3.2424136725
C   1.6859302837  3.5180772901 -3.4257345329
C   2.5587425457  2.5152445016 -3.0115164457
C   2.0609560473  1.3605097366 -2.4057193018
H   0.1424293286 -2.1301424508  0.1588556904
H  -0.6614552734 -1.3248548526  1.5483212912
H  -1.5317440727 -1.4955319577 -0.0133445064
H  -0.5187469867  2.0723055426  0.1973944615
H  -1.9064488236  0.9618991836 -0.0994134768
H  -1.1149952178  1.0177810668  1.5108153356
H   1.2161652754  0.1341287521  1.7506033912
H   2.0463507845 -0.5364429500  0.3071754486
H   1.7059899172  1.2289998720  0.4262394257
H   0.7881721381 -0.8983901726 -1.7707046177
H  -0.8519639239 -0.2766833010 -1.9394119370
H  -1.2658178352  2.1163836549 -2.5238209405
H  -0.3644110007  4.1464237169 -3.5824130181
H   2.0750360572  4.4147647772 -3.9041382234
H   3.6288412348  2.6327438993 -3.1716727930
H   2.7673178724  0.5875890280 -2.1089783858
O  -2.8199056720 -0.2250000000  0.9987527227
C  -3.6376444756  0.7020667583  1.2605136872
O  -3.6316937748  1.8888461306  0.8120042828
C  -4.7555230960  0.3991003939  2.2637775060
F  -4.9339386965 -0.9500106045  2.4065019454
F  -5.9500256336  0.8771632392  1.8057369561
C  -4.3946775968  1.0293408979  3.5836869021
F  -3.2919552253  0.4114102491  4.1202038522
F  -5.4019585979  0.7255513306  4.4800027507
C  -4.1727771127  2.5383667494  3.6454718917
F  -3.9439999771  2.8539042966  4.9719872773
F  -3.0233999308  2.9063718721  3.0338017169
C  -5.3549656756  3.3785089516  3.1877456315
F  -6.4905439748  2.9149087809  3.8083630994
F  -5.6127091680  3.2655830615  1.8640873269
C  -5.2358352039  4.8569059980  3.5346297230
F  -5.2092390906  5.0212687490  4.8909968928
F  -6.4006078321  5.4678294806  3.1387908238
C  -4.0607662979  5.5900868531  2.9144210128
F  -2.8947653167  5.1499142601  3.4545849549
F  -3.9943483238  5.3495314600  1.5824433345
C  -4.1746270518  7.0793993150  3.1538460309
F  -5.3161919755  7.5818991652  2.6003411184
F  -4.2631078827  7.3491131358  4.4894918893
C  -2.9706414694  7.7910040433  2.5675445990
F  -1.8039490870  7.3968576000  3.1280122069
F  -3.0571389224  9.1333135685  2.7745436033
F  -2.8570643943  7.6193041696  1.2312204780

