%NProcShared=8
%Mem=30GB
%OldChk=freq.chk
%Chk=basis.chk
#p PBE1PBE/Gen 5D 7F SCF=(XQC,Tight) Integral=UltraFine NoSymm EmpiricalDispersion=GD3BJ SCRF=(SMD,Solvent=Water) SP Geom=AllCheck Guess=Read

H     0
S    4   1.00
    190.6916900              0.70815167D-03
     28.6055320              0.54678827D-02
      6.5095943              0.27966605D-01
      1.8412455              0.10764538
S    1   1.00
      0.59853725             1.0000000
S    1   1.00
      0.21397624             1.0000000
S    1   1.00
      0.80316286D-01         1.0000000
P    1   1.00
      2.29200000             1.0000000
P    1   1.00
      0.83800000             1.0000000
P    1   1.00
      0.29200000             1.0000000
P    1   1.00
      0.84063199228D-01      1.0000000
D    1   1.00
      2.06200000             1.0000000
D    1   1.00
      0.66200000             1.0000000
F    1   1.00
      1.39700000             1.0000000
****
C     0
S    8   1.00
  67025.0710290              0.38736308501D-04
  10039.9865380              0.30107917575D-03
   2284.9316911              0.15787918095D-02
    647.14122130             0.66087087195D-02
    211.09472335             0.23367123250D-01
     76.177643862            0.70420716898D-01
     29.633839163            0.17360344953
     12.187785081            0.32292305648
S    2   1.00
     53.026006299            0.74897404492D-01
     15.258502776            0.76136220983
S    1   1.00
      5.2403957464           1.0000000
S    1   1.00
      2.2905022379           1.0000000
S    1   1.00
      0.69673283006          1.0000000
S    1   1.00
      0.27599337363          1.0000000
S    1   1.00
      0.10739884389          1.0000000
S    1   1.00
      0.44981404899D-01      1.0000000
P    5   1.00
    105.12555082             0.84647553844D-03
     24.884461066            0.66274038534D-02
      7.8637230826           0.30120390419D-01
      2.8407001835           0.99951435476D-01
      1.1227137335           0.23826299282
P    1   1.00
      0.46050725555          1.0000000
P    1   1.00
      0.18937530913          1.0000000
P    1   1.00
      0.75983791611D-01      1.0000000
D    1   1.00
      1.84800000             1.0000000
D    1   1.00
      0.64900000             1.0000000
D    1   1.00
      0.22800000             1.0000000
D    1   1.00
      0.76889830417D-01      1.0000000
F    1   1.00
      1.41900000             1.0000000
F    1   1.00
      0.48500000             1.0000000
G    1   1.00
      1.01100000             1.0000000
****
N     0
S    8   1.00
  90726.8892100              0.39257887368D-04
  13590.5288010              0.30513316455D-03
   3092.9883781              0.16000560446D-02
    875.99876362             0.66982937306D-02
    285.74469982             0.23690078765D-01
    103.11913417             0.71455405268D-01
     40.128556777            0.17632774876
     16.528095704            0.32677592815
S    2   1.00
     69.390960983            0.80052094386D-01
     20.428200596            0.78268063538
S    1   1.00
      7.1292587972           1.0000000
S    1   1.00
      3.1324304893           1.0000000
S    1   1.00
      0.98755778723          1.0000000
S    1   1.00
      0.38765721307          1.0000000
S    1   1.00
      0.14909883075          1.0000000
S    1   1.00
      0.62151630318D-01      1.0000000
P    5   1.00
    150.05742670            -0.86216165986D-03
     35.491599483           -0.68571273236D-02
     11.247864223           -0.31795688855D-01
      4.0900305195          -0.10537396822
      1.6220573146          -0.24519708041
P    1   1.00
      0.66442261530          1.0000000
P    1   1.00
      0.27099770070          1.0000000
P    1   1.00
      0.10688749984          1.0000000
D    1   1.00
      2.83700000             1.0000000
D    1   1.00
      0.96800000             1.0000000
D    1   1.00
      0.33500000             1.0000000
D    1   1.00
      0.10825280010          1.0000000
F    1   1.00
      2.02700000             1.0000000
F    1   1.00
      0.68500000             1.0000000
G    1   1.00
      1.42700000             1.0000000
****
Cl     0
S    10   1.00
1467459.0095000              0.11478257194D-04
 219756.1643300              0.89234299775D-04
  50010.7703010              0.46911086186D-03
  14164.8239180              0.19762446133D-02
   4620.7465525              0.71419937783D-02
   1667.8991635              0.22753219445D-01
    650.29199265             0.63959782953D-01
    269.38037376             0.15331059238
    117.06752106             0.28986952417
     52.811766843            0.36348071452
S    3   1.00
    461.42769988             0.18019457578D-01
    142.12665355             0.16489442314
     54.437838768            0.63891587584
S    1   1.00
     24.160770219            1.0000000
S    1   1.00
      9.7083540306           1.0000000
S    1   1.00
      4.5640696733           1.0000000
S    1   1.00
      2.1194744832           1.0000000
S    1   1.00
      0.75722365394          1.0000000
S    1   1.00
      0.33747224597          1.0000000
S    1   1.00
      0.13860775149          1.0000000
S    1   1.00
      0.54234565513D-01      1.0000000
P    8   1.00
   2501.9457890              0.24242618410D-03
    592.88059285             0.21079961749D-02
    192.18089186             0.11432693869D-01
     72.875710488            0.44956698060D-01
     30.436358370            0.13197476145
     13.490178902            0.27493639225
      6.1478071413           0.38347236372
      2.8450944820           0.28871943885
P    2   1.00
    105.39397936            -0.34311760144D-01
      6.7369738513           0.64060818902
P    1   1.00
      1.2421095772           1.0000000
P    1   1.00
      0.55669714254          1.0000000
P    1   1.00
      0.23387801464          1.0000000
P    1   1.00
      0.93164490890D-01      1.0000000
P    1   1.00
      0.27256146018D-01      1.0000000
D    1   1.00
      5.19100000             1.0000000
D    1   1.00
      1.27600000             1.0000000
D    1   1.00
      0.583000000            1.0000000
D    1   1.00
      0.243000000            1.0000000
D    1   1.00
      0.83456538402D-01      1.0000000
F    1   1.00
      1.08900000             1.0000000
F    1   1.00
      0.423000000            1.0000000
G    1   1.00
      0.827000000            1.0000000
****

