%NProcShared=8
%Mem=30GB
%Chk=opt.chk
#p PBEPBE/Gen 5D 7F SCF=(XQC,Tight) Integral=UltraFine NoSymm EmpiricalDispersion=GD3BJ SCRF=(SMD,Solvent=Water) Opt=(Cartesian,CalcFC,Tight,MaxCycles=300)

A400_Cl_c1_p1__water | opt | def2-SVPD

0 1
C -1.2909899813 1.3278452508 1.0111878821
N -1.5542763097 0.0751864648 0.1885889629
C -2.8856447165 -0.5276930849 0.6258163843
C -1.6486258899 0.4546269959 -1.2818757196
C -0.4531874870 -0.9816691277 0.4193181400
C 0.9539336778 -0.5854788709 0.0489799948
C 1.4496235825 -0.8274872611 -1.2424086109
C 2.7487557317 -0.4504591359 -1.5863546547
C 3.5694045598 0.1652992999 -0.6448512772
C 3.0966064701 0.3988587881 0.6439326759
C 1.7980750335 0.0232974198 0.9917303300
H -0.3922858916 1.8226711898 0.6342298675
H -1.1674308783 1.0365478640 2.0582999085
H -2.1499744946 1.9975784739 0.9035750602
H -3.6740952936 0.2140757390 0.4663229963
H -2.8174180859 -0.7872159018 1.6865090052
H -3.0768461849 -1.4206210024 0.0231568023
H -0.7370253448 0.9809570625 -1.5761202491
H -1.7799309344 -0.4589801844 -1.8689411270
H -2.5112044460 1.1155894826 -1.4125074298
H -0.4941009073 -1.2539228262 1.4821155409
H -0.7482537758 -1.8744665893 -0.1474118434
H 0.8391623699 -1.3223121918 -1.9953326202
H 3.1292028186 -0.6445644280 -2.5874307663
H 4.5844072825 0.4524440866 -0.9125061746
H 3.7479896656 0.8662759206 1.3799962755
H 1.4641294297 0.2036165660 2.0117175710
Cl -3.5124154634 1.1771864648 3.0012899877

H     0
S    3   1.00
     13.0107010              0.19682158D-01
      1.9622572              0.13796524
      0.44453796             0.47831935
S    1   1.00
      0.12194962             1.0000000
P    1   1.00
      0.8000000              1.0000000
P    1   1.00
      0.11704099050          1.0000000
****
C     0
S    5   1.00
   1238.4016938              0.54568832082D-02
    186.29004992             0.40638409211D-01
     42.251176346            0.18025593888
     11.676557932            0.46315121755
      3.5930506482           0.44087173314
S    1   1.00
      0.40245147363          1.0000000
S    1   1.00
      0.13090182668          1.0000000
S    1   1.00
      0.67053540256D-01      1.0000000
P    3   1.00
      9.4680970621           0.38387871728D-01
      2.0103545142           0.21117025112
      0.54771004707          0.51328172114
P    1   1.00
      0.15268613795          1.0000000
D    1   1.00
      0.8000000              1.0000000
D    1   1.00
      0.11713185140          1.0000000
****
N     0
S    5   1.00
   1712.8415853             -0.53934125305D-02
    257.64812677            -0.40221581118D-01
     58.458245853           -0.17931144990
     16.198367905           -0.46376317823
      5.0052600809          -0.44171422662
S    1   1.00
      0.58731856571          1.0000000
S    1   1.00
      0.18764592253          1.0000000
S    1   1.00
      0.96171241529D-01      1.0000000
P    3   1.00
     13.571470233           -0.40072398852D-01
      2.9257372874          -0.21807045028
      0.79927750754         -0.51294466049
P    1   1.00
      0.21954348034          1.0000000
D    1   1.00
      1.0000000              1.0000000
D    1   1.00
      0.16697708112          1.0000000
****
Cl     0
S    5   1.00
  10449.8275660              0.19708362484D-02
   1571.7365221              0.14754727977D-01
    357.12065523             0.66679112875D-01
    100.25185935             0.17228924084
     30.812727554            0.15883786100
S    3   1.00
     51.923789434           -0.10009298909
      5.7045760975           0.60841752753
      2.3508376809           0.54352153355
S    1   1.00
      0.44605124672          1.0000000
S    1   1.00
      0.16848856190          1.0000000
S    1   1.00
      0.55344229413D-01      1.0000000
P    5   1.00
    307.66790569            -0.87801484118D-02
     72.102015515           -0.63563355471D-01
     22.532680262           -0.24016428276
      7.8991765444          -0.47798866557
      2.8767268321          -0.38515850005
P    1   1.00
      0.77459363955          1.0000000
P    1   1.00
      0.21037699698          1.0000000
P    1   1.00
      0.50046271086D-01      1.0000000
D    1   1.00
      0.6500000              1.0000000
D    1   1.00
      0.12284803390          1.0000000
****

