%NProcShared=8
%Mem=48GB
%OldChk=opt.chk
%Chk=freq.chk
#p PBEPBE/GenECP 5D 7F SCF=(XQC,Tight) Integral=UltraFine NoSymm EmpiricalDispersion=GD3BJ Freq Temperature=298.15 Geom=AllCheck Guess=Read

H     0
S    3   1.00
     13.0107010              0.19682158D-01
      1.9622572              0.13796524
      0.44453796             0.47831935
S    1   1.00
      0.12194962             1.0000000
P    1   1.00
      0.8000000              1.0000000
P    1   1.00
      0.11704099050          1.0000000
****
C     0
S    5   1.00
   1238.4016938              0.54568832082D-02
    186.29004992             0.40638409211D-01
     42.251176346            0.18025593888
     11.676557932            0.46315121755
      3.5930506482           0.44087173314
S    1   1.00
      0.40245147363          1.0000000
S    1   1.00
      0.13090182668          1.0000000
S    1   1.00
      0.67053540256D-01      1.0000000
P    3   1.00
      9.4680970621           0.38387871728D-01
      2.0103545142           0.21117025112
      0.54771004707          0.51328172114
P    1   1.00
      0.15268613795          1.0000000
D    1   1.00
      0.8000000              1.0000000
D    1   1.00
      0.11713185140          1.0000000
****
O     0
S    5   1.00
   2266.1767785             -0.53431809926D-02
    340.87010191            -0.39890039230D-01
     77.363135167           -0.17853911985
     21.479644940           -0.46427684959
      6.6589433124          -0.44309745172
S    1   1.00
      0.80975975668          1.0000000
S    1   1.00
      0.25530772234          1.0000000
S    1   1.00
      0.76572453250D-01      1.0000000
P    3   1.00
     17.721504317            0.43394573193D-01
      3.8635505440           0.23094120765
      1.0480920883           0.51375311064
P    1   1.00
      0.27641544411          1.0000000
P    1   1.00
      0.69002276350D-01      1.0000000
D    1   1.00
      1.2000000              1.0000000
D    1   1.00
      0.17992024323          1.0000000
****
F     0
S    5   1.00
   2894.8325990             -0.53408255515D-02
    435.41939120            -0.39904258866D-01
     98.843328866           -0.17912768038
     27.485198001           -0.46758090825
      8.5405498171          -0.44653131020
S    1   1.00
      1.0654578038           1.0000000
S    1   1.00
      0.33247346748          1.0000000
S    1   1.00
      0.98097752264D-01      1.0000000
P    3   1.00
     22.696633924           -0.45212874436D-01
      4.9872339257          -0.23754317067
      1.3491613954          -0.51287353587
P    1   1.00
      0.34829881977          1.0000000
P    1   1.00
      0.83372148304D-01      1.0000000
D    1   1.00
      1.4000000              1.0000000
D    1   1.00
      0.22301361948          1.0000000
****
P     0
S    5   1.00
   8002.4795106              0.57503489302D-02
   1203.6813590              0.43007628959D-01
    273.44227031             0.19363986252
     76.655541517            0.49651693399
     23.516927435            0.44983262479
S    3   1.00
     39.791683439            0.95188129789D-01
      4.2770343323          -0.57649840368
      1.6940256888          -0.54239583865
S    1   1.00
      0.27567674644          1.0000000
S    1   1.00
      0.10495590099          1.0000000
S    1   1.00
      0.64309734755D-01      1.0000000
P    5   1.00
    219.50755823             0.92100565257D-02
     51.274155030            0.65409765745D-01
     15.921595892            0.24033730279
      5.5069913481           0.46318321788
      1.9537719426           0.37392563382
P    1   1.00
      0.47803397932          1.0000000
P    1   1.00
      0.13657952621          1.0000000
D    1   1.00
      0.4500000              1.0000000
D    1   1.00
      0.99587311089D-01      1.0000000
****
I     0
S    2   1.00
     11.720547572           -0.16160234511D-01
      1.7625986449           0.35271525193
S    6   1.00
    445.90489176             0.20037290389D-02
     23.336842412           -0.14989397324
     19.583446104            0.36436474913
      8.5112089186          -0.75538138199
      2.1996161861           0.82816359356
      1.0668970454           0.42161048110
S    1   1.00
      0.28697476318          1.0000000
S    1   1.00
      0.11227609607          1.0000000
S    1   1.00
      0.45123635492D-01      1.0000000
P    1   1.00
      3.0288656771           1.0000000
P    4   1.00
     20.499027254            0.77159335656D-01
     10.558754576           -0.38370372780
      1.5015895485           0.83554174719
      0.64597173095          0.16787259488
P    1   1.00
      0.34506591841          1.0000000
P    1   1.00
      0.11134513813          1.0000000
P    1   1.00
      0.29795507230D-01      1.0000000
D    5   1.00
     51.235354920            0.40345130346D-02
     15.616239482           -0.50768108881D-02
      4.5266002139           0.29151065356
      2.0529808766           0.51145783605
      0.87640281623          0.31232025297
D    1   1.00
      0.30900000000          1.0000000
D    1   1.00
      0.77987255180D-01      1.0000000
****

I     0
I-ECP     3     28
f potential
  4
2     19.45860900           -21.84204000
2     19.34926000           -28.46819100
2      4.82376700            -0.24371300
2      4.88431500            -0.32080400
s-f potential
  7
2     40.01583500            49.99429300
2     17.42974700           281.02531700
2      9.00548400            61.57332600
2     19.45860900            21.84204000
2     19.34926000            28.46819100
2      4.82376700             0.24371300
2      4.88431500             0.32080400
p-f potential
  8
2     15.35546600            67.44284100
2     14.97183300           134.88113700
2      8.96016400            14.67505100
2      8.25909600            29.37566600
2     19.45860900            21.84204000
2     19.34926000            28.46819100
2      4.82376700             0.24371300
2      4.88431500             0.32080400
d-f potential
  10
2     15.06890800            35.43952900
2     14.55532200            53.17605700
2      6.71864700             9.06719500
2      6.45639300            13.20693700
2      1.19177900             0.08933500
2      1.29115700             0.05238000
2     19.45860900            21.84204000
2     19.34926000            28.46819100
2      4.82376700             0.24371300
2      4.88431500             0.32080400

