%NProcShared=8
%Mem=30GB
%Chk=opt.chk
#p PBEPBE/6-31+G(d,p) Opt=(CalcFC,Tight,MaxCycles=250) EmpiricalDispersion=GD3BJ SCF=(XQC,Tight) Integral=UltraFine NoSymm SCRF=(SMD,Solvent=Water)

free_PFOA__water | opt

-1 1
F  -1.0295882780  1.9649063914 -0.2739560578
F   0.5298979991  1.2274404678 -1.5635973850
F   1.2288234892  1.7001849537  1.1258261035
F  -0.3184352716  0.3513008576  1.7516849349
F  -1.8467419046  0.2070736041 -2.1126903689
F  -0.4545775513 -1.3049745504 -1.4436288898
F   2.0576630397 -0.7979925578  1.9454120250
F   0.7537922999 -1.7483590782  0.5146635864
F  -2.9525829174 -1.7605522432 -0.6696538779
F  -1.6788729771 -1.3872254422  1.0391612545
F   2.0770595730 -0.6109681975 -1.6035954240
F   3.3318373245 -1.8046801102 -0.2867227664
F  -3.8351002552  0.9196482246 -0.6083205371
F  -2.6609648796  1.2461806287  1.1969224353
F  -4.2210206904 -0.2543634869  1.1789680107
O   4.5151217432  0.4032071204  0.6569085243
O   3.1646807344  1.6361064397 -0.6929182835
C  -0.2534063618  0.8578569415 -0.5160952732
C   0.5829782855  0.5704658404  0.7283359966
C  -1.1915296285 -0.2470731200 -0.9910550332
C   1.5313621803 -0.6243625743  0.6924267318
C  -2.2460180063 -0.7671091924 -0.0300666546
C   2.6168719056 -0.6403309906 -0.3501722969
C  -3.2298009989  0.2952020763  0.4276172876
C   3.5285511464  0.5684179975 -0.1154540421

