%NProcShared=8
%Mem=48GB
%Chk=opt.chk
#p PBEPBE/Gen 5D 7F SCF=(XQC,Tight) Integral=UltraFine NoSymm EmpiricalDispersion=GD3BJ SCRF=(SMD,Solvent=Water) Opt=(Cartesian,CalcFC,Tight,MaxCycles=300)

PCy3_PFOS_s6_c3_p3__water | opt | def2-SVPD

0 1
C 0.3503973659 -0.3236553838 -3.0214571125
C 0.7194119381 0.2275759823 -4.4004060968
C -0.0934588953 1.4586624880 -4.8015331297
C -1.4349636560 1.5088002320 -4.0852217590
C -1.2596493799 1.5662962631 -2.5664914736
C -0.0327274933 0.7868988397 -2.0431529882
P -0.2005610836 0.2614995431 -0.3015685139
C -0.6486920239 1.7724694739 0.5460098858
C -0.3100632169 2.0387741311 1.9920495635
C -1.1470505642 1.6214272507 3.0334138698
C -0.8179869354 1.8802264987 4.3668546645
C 0.3471291320 2.5749588407 4.6779402363
C 1.1772939973 3.0209789350 3.6546082202
C 0.8471501220 2.7594041600 2.3228999483
C 1.3796904440 -0.4168979358 0.2327336442
C 1.3863424637 -0.9390815615 1.6834267556
C 2.6859863387 -0.6841412547 2.4426833276
C 3.8922234619 -1.0088452813 1.5768506467
C 3.9225382006 -0.1830531556 0.2933172588
C 2.5896104628 0.4810977938 -0.0525847516
C -1.5026665836 -0.9892518876 -0.2690834694
C -2.3831291102 -0.9748743072 0.9837116233
C -3.5206131703 -1.9935165819 0.9234143300
C -3.0164642453 -3.3999989596 0.6308877854
C -2.1584525355 -3.4247296490 -0.6272275284
C -1.0105563648 -2.4242167246 -0.5293085166
H -0.4933892387 -1.0143231580 -3.1333237800
H 1.1867955512 -0.9161716928 -2.6385773804
H 1.7852084645 0.4854967343 -4.4244747696
H 0.5808505652 -0.5668611639 -5.1437612800
H 0.4767493066 2.3643209300 -4.5588247759
H -0.2405439501 1.4658724546 -5.8874340160
H -2.0117318871 2.3780233531 -4.4210324136
H -2.0227438865 0.6215649559 -4.3521921857
H -1.1555715239 2.6154403306 -2.2618287634
H -2.1826369550 1.2167784301 -2.0934427715
H 0.7964328718 1.5058349640 -2.0356827447
H -0.1912619622 2.5914699904 -0.0251396702
H -1.7254324087 1.9363028213 0.4135158234
H -2.0749779473 1.1001456209 2.8265822156
H -1.4776222628 1.5429640233 5.1620726362
H 0.6016121278 2.7771490676 5.7145524695
H 2.0814820695 3.5758058769 3.8900472911
H 1.5023424076 3.1357152154 1.5410599985
H 1.5292207817 -1.3017043606 -0.3994344669
H 1.2152013348 -2.0222882219 1.6627451705
H 0.5519981516 -0.5325313898 2.2566544406
H 2.7345634789 0.3615646083 2.7664102431
H 2.7035651794 -1.2946366458 3.3527235630
H 3.8708823448 -2.0750517563 1.3177294022
H 4.8173830917 -0.8483826303 2.1421462402
H 4.2362909990 -0.8306701274 -0.5348085356
H 4.6909015062 0.5955524688 0.3741457088
H 2.6180243391 0.7679767322 -1.1079718869
H 2.4979322546 1.4153597103 0.5053962536
H -2.1679776517 -0.7357601447 -1.1030305067
H -2.8320235819 0.0151318546 1.0989509130
H -1.7680992984 -1.1643955946 1.8701002044
H -4.0693949232 -1.9876892474 1.8720161595
H -4.2321881572 -1.6941563108 0.1437266865
H -2.4288197651 -3.7627660694 1.4831474939
H -3.8660875290 -4.0819735102 0.5142175171
H -2.7765967611 -3.1914502044 -1.5026965286
H -1.7566198809 -4.4330153389 -0.7781581454
H -0.3446410249 -2.7416341642 0.2783466157
H -0.4198148993 -2.4698161608 -1.4472388456
O 1.0663791476 4.9959476426 -1.4888866034
S 2.1702612294 4.0371028226 -1.3958312173
O 1.8054079013 2.7802495431 -0.7425751680
O 2.9141355293 3.8704319694 -2.6422452470
C 3.3330439453 4.8387368830 -0.2793461860
F 2.7868480677 5.0316043616 0.9730826190
F 4.4508547882 4.0653646447 -0.0432169641
C 3.7851338012 6.1856830321 -0.8139318987
F 4.6096640220 6.0940872446 -1.8918033272
F 4.6248975738 6.6935411345 0.1788749358
C 2.7046065494 7.2417015183 -1.0298945842
F 1.6754639670 7.0778786661 -0.1717806046
F 3.2443998108 8.4574686198 -0.6216737737
C 2.3045422373 7.4833340098 -2.4859125625
F 3.4038508221 8.0717106345 -3.0892909277
F 2.0928780627 6.3795401583 -3.2244254888
C 1.1437578959 8.4539001638 -2.6561496319
F 1.3677089405 9.5837104294 -1.9239410142
F 1.1520884631 8.8825180445 -3.9638713698
C -0.2417258792 7.9006374464 -2.3599874230
F -0.3554062057 7.5234571193 -1.0647751897
F -0.4885188226 6.8061692833 -3.1230773675
C -1.2969192045 8.9456629790 -2.6491744348
F -1.2428702850 9.3590310084 -3.9488672237
F -1.0848791839 10.0677916240 -1.8990319649
C -2.6757594276 8.3882558575 -2.3512891237
F -3.6332651907 9.3234885052 -2.6041410425
F -2.8322750834 8.0319332401 -1.0558246567
F -2.9883438064 7.3144480059 -3.1109983383

H     0
S    3   1.00
     13.0107010              0.19682158D-01
      1.9622572              0.13796524
      0.44453796             0.47831935
S    1   1.00
      0.12194962             1.0000000
P    1   1.00
      0.8000000              1.0000000
P    1   1.00
      0.11704099050          1.0000000
****
C     0
S    5   1.00
   1238.4016938              0.54568832082D-02
    186.29004992             0.40638409211D-01
     42.251176346            0.18025593888
     11.676557932            0.46315121755
      3.5930506482           0.44087173314
S    1   1.00
      0.40245147363          1.0000000
S    1   1.00
      0.13090182668          1.0000000
S    1   1.00
      0.67053540256D-01      1.0000000
P    3   1.00
      9.4680970621           0.38387871728D-01
      2.0103545142           0.21117025112
      0.54771004707          0.51328172114
P    1   1.00
      0.15268613795          1.0000000
D    1   1.00
      0.8000000              1.0000000
D    1   1.00
      0.11713185140          1.0000000
****
O     0
S    5   1.00
   2266.1767785             -0.53431809926D-02
    340.87010191            -0.39890039230D-01
     77.363135167           -0.17853911985
     21.479644940           -0.46427684959
      6.6589433124          -0.44309745172
S    1   1.00
      0.80975975668          1.0000000
S    1   1.00
      0.25530772234          1.0000000
S    1   1.00
      0.76572453250D-01      1.0000000
P    3   1.00
     17.721504317            0.43394573193D-01
      3.8635505440           0.23094120765
      1.0480920883           0.51375311064
P    1   1.00
      0.27641544411          1.0000000
P    1   1.00
      0.69002276350D-01      1.0000000
D    1   1.00
      1.2000000              1.0000000
D    1   1.00
      0.17992024323          1.0000000
****
F     0
S    5   1.00
   2894.8325990             -0.53408255515D-02
    435.41939120            -0.39904258866D-01
     98.843328866           -0.17912768038
     27.485198001           -0.46758090825
      8.5405498171          -0.44653131020
S    1   1.00
      1.0654578038           1.0000000
S    1   1.00
      0.33247346748          1.0000000
S    1   1.00
      0.98097752264D-01      1.0000000
P    3   1.00
     22.696633924           -0.45212874436D-01
      4.9872339257          -0.23754317067
      1.3491613954          -0.51287353587
P    1   1.00
      0.34829881977          1.0000000
P    1   1.00
      0.83372148304D-01      1.0000000
D    1   1.00
      1.4000000              1.0000000
D    1   1.00
      0.22301361948          1.0000000
****
P     0
S    5   1.00
   8002.4795106              0.57503489302D-02
   1203.6813590              0.43007628959D-01
    273.44227031             0.19363986252
     76.655541517            0.49651693399
     23.516927435            0.44983262479
S    3   1.00
     39.791683439            0.95188129789D-01
      4.2770343323          -0.57649840368
      1.6940256888          -0.54239583865
S    1   1.00
      0.27567674644          1.0000000
S    1   1.00
      0.10495590099          1.0000000
S    1   1.00
      0.64309734755D-01      1.0000000
P    5   1.00
    219.50755823             0.92100565257D-02
     51.274155030            0.65409765745D-01
     15.921595892            0.24033730279
      5.5069913481           0.46318321788
      1.9537719426           0.37392563382
P    1   1.00
      0.47803397932          1.0000000
P    1   1.00
      0.13657952621          1.0000000
D    1   1.00
      0.4500000              1.0000000
D    1   1.00
      0.99587311089D-01      1.0000000
****
S     0
S    5   1.00
   9184.9303010             -0.22294387756D-02
   1381.5105503             -0.16683029937D-01
    313.87147580            -0.75262436116D-01
     88.053870623           -0.19376827038
     27.039914905           -0.17718020803
S    3   1.00
     45.648731303           -0.10736062573
      4.9664522326           0.65066293018
      2.0116242047           0.59712155354
S    1   1.00
      0.35661077013          1.0000000
S    1   1.00
      0.13507221477          1.0000000
S    1   1.00
      0.44999823506D-01      1.0000000
P    5   1.00
    261.98233439            -0.92729929822D-02
     61.306894736           -0.66547669241D-01
     19.103729887           -0.24828595903
      6.6567720378          -0.48703847402
      2.3959635161          -0.39337850312
P    1   1.00
      0.61776161679          1.0000000
P    1   1.00
      0.16993376871          1.0000000
P    1   1.00
      0.41706793676D-01      1.0000000
D    1   1.00
      0.5500000              1.0000000
D    1   1.00
      0.10172853717          1.0000000
****

