%NProcShared=8
%Mem=30GB
%Chk=opt.chk
#p PBEPBE/Gen 5D 7F SCF=(XQC,Tight) Integral=UltraFine NoSymm EmpiricalDispersion=GD3BJ SCRF=(SMD,Solvent=Water) Opt=(Cartesian,CalcFC,Tight,MaxCycles=300)

free_PFOS_c2__water | opt | def2-SVPD

-1 1
O 1.2923613652 -0.4330197624 1.7955927447
S 2.7478051389 -0.5925803634 1.7424685471
O 3.4054056736 -0.4357025671 3.0395778244
O 3.1861522290 -1.7634161338 0.9863789308
C 3.2909418508 0.8118903646 0.7557142095
F 2.9834310480 2.0116886221 1.3640126232
F 4.6622645680 0.8507056207 0.6096659644
C 2.6609326540 0.8033140626 -0.6253889400
F 3.1405529311 -0.1780831885 -1.4358644269
F 3.1322548031 1.9681399487 -1.2335209514
C 1.1381832823 0.8825395455 -0.6910527850
F 0.6327609957 1.5559524136 0.3641227479
F 0.8255202326 1.7191766477 -1.7580067750
C 0.4264780789 -0.4287006453 -1.0265389000
F 0.7548279470 -0.7134321227 -2.3417750835
F 0.8516068393 -1.5127980066 -0.3538113324
C -1.0924794153 -0.3416163229 -0.9666718969
F -1.5264245633 0.7463427919 -1.6672369115
F -1.5956187121 -1.4203583702 -1.6573854940
C -1.7104703121 -0.3536530264 0.4230472649
F -1.3209789008 0.7232456483 1.1450920210
F -1.3218040483 -1.4601589234 1.1054377802
C -3.2203216784 -0.3449585430 0.3260230250
F -3.6782505584 -1.4180509320 -0.3823339645
F -3.6549556593 0.7563202663 -0.3559782053
C -3.8303976691 -0.3563107223 1.7146616144
F -5.1903392955 -0.3439100584 1.6383957582
F -3.4861305275 0.7248222967 2.4510872208
F -3.5033082970 -1.4573885400 2.4278029529

C     0
S    5   1.00
   1238.4016938              0.54568832082D-02
    186.29004992             0.40638409211D-01
     42.251176346            0.18025593888
     11.676557932            0.46315121755
      3.5930506482           0.44087173314
S    1   1.00
      0.40245147363          1.0000000
S    1   1.00
      0.13090182668          1.0000000
S    1   1.00
      0.67053540256D-01      1.0000000
P    3   1.00
      9.4680970621           0.38387871728D-01
      2.0103545142           0.21117025112
      0.54771004707          0.51328172114
P    1   1.00
      0.15268613795          1.0000000
D    1   1.00
      0.8000000              1.0000000
D    1   1.00
      0.11713185140          1.0000000
****
O     0
S    5   1.00
   2266.1767785             -0.53431809926D-02
    340.87010191            -0.39890039230D-01
     77.363135167           -0.17853911985
     21.479644940           -0.46427684959
      6.6589433124          -0.44309745172
S    1   1.00
      0.80975975668          1.0000000
S    1   1.00
      0.25530772234          1.0000000
S    1   1.00
      0.76572453250D-01      1.0000000
P    3   1.00
     17.721504317            0.43394573193D-01
      3.8635505440           0.23094120765
      1.0480920883           0.51375311064
P    1   1.00
      0.27641544411          1.0000000
P    1   1.00
      0.69002276350D-01      1.0000000
D    1   1.00
      1.2000000              1.0000000
D    1   1.00
      0.17992024323          1.0000000
****
F     0
S    5   1.00
   2894.8325990             -0.53408255515D-02
    435.41939120            -0.39904258866D-01
     98.843328866           -0.17912768038
     27.485198001           -0.46758090825
      8.5405498171          -0.44653131020
S    1   1.00
      1.0654578038           1.0000000
S    1   1.00
      0.33247346748          1.0000000
S    1   1.00
      0.98097752264D-01      1.0000000
P    3   1.00
     22.696633924           -0.45212874436D-01
      4.9872339257          -0.23754317067
      1.3491613954          -0.51287353587
P    1   1.00
      0.34829881977          1.0000000
P    1   1.00
      0.83372148304D-01      1.0000000
D    1   1.00
      1.4000000              1.0000000
D    1   1.00
      0.22301361948          1.0000000
****
S     0
S    5   1.00
   9184.9303010             -0.22294387756D-02
   1381.5105503             -0.16683029937D-01
    313.87147580            -0.75262436116D-01
     88.053870623           -0.19376827038
     27.039914905           -0.17718020803
S    3   1.00
     45.648731303           -0.10736062573
      4.9664522326           0.65066293018
      2.0116242047           0.59712155354
S    1   1.00
      0.35661077013          1.0000000
S    1   1.00
      0.13507221477          1.0000000
S    1   1.00
      0.44999823506D-01      1.0000000
P    5   1.00
    261.98233439            -0.92729929822D-02
     61.306894736           -0.66547669241D-01
     19.103729887           -0.24828595903
      6.6567720378          -0.48703847402
      2.3959635161          -0.39337850312
P    1   1.00
      0.61776161679          1.0000000
P    1   1.00
      0.16993376871          1.0000000
P    1   1.00
      0.41706793676D-01      1.0000000
D    1   1.00
      0.5500000              1.0000000
D    1   1.00
      0.10172853717          1.0000000
****

