%NProcShared=8
%Mem=30GB
%Chk=opt.chk
#p PBEPBE/6-31+G(d,p) Opt=(CalcFC,Tight,MaxCycles=250) EmpiricalDispersion=GD3BJ SCF=(XQC,Tight) Integral=UltraFine NoSymm

A400_PFOA_head_axial__unsolvated | opt

0 1
C  -0.5566950646 -1.3439910110  0.4592976295
N   0.0000000000  0.0000000000  0.0000000000
C  -0.9594641671  1.0996553712  0.4304987401
C   1.3485241254  0.2247909877  0.6679034873
C   0.1420150732 -0.0422755299 -1.5364310404
C   0.6810559772  1.1994261314 -2.2010522821
C  -0.1877259808  2.2128930114 -2.6370155881
C   0.3139375804  3.3661586663 -3.2424136725
C   1.6859302837  3.5180772901 -3.4257345329
C   2.5587425457  2.5152445016 -3.0115164457
C   2.0609560473  1.3605097366 -2.4057193018
H   0.1424293286 -2.1301424508  0.1588556904
H  -0.6614552734 -1.3248548526  1.5483212912
H  -1.5317440727 -1.4955319577 -0.0133445064
H  -0.5187469867  2.0723055426  0.1973944615
H  -1.9064488236  0.9618991836 -0.0994134768
H  -1.1149952178  1.0177810668  1.5108153356
H   1.2161652754  0.1341287521  1.7506033912
H   2.0463507845 -0.5364429500  0.3071754486
H   1.7059899172  1.2289998720  0.4262394257
H   0.7881721381 -0.8983901726 -1.7707046177
H  -0.8519639239 -0.2766833010 -1.9394119370
H  -1.2658178352  2.1163836549 -2.5238209405
H  -0.3644110007  4.1464237169 -3.5824130181
H   2.0750360572  4.4147647772 -3.9041382234
H   3.6288412348  2.6327438993 -3.1716727930
H   2.7673178724  0.5875890280 -2.1089783858
F   2.0270084300  3.9746320260  7.3315617724
F   1.6832597637  5.0127344582  5.4759733525
F   1.6015477616  2.1966928479  5.3853329196
F   0.0577643135  2.2062577597  6.8759161721
F   0.6647099761  6.2603627286  7.5728874905
F  -0.8695142896  5.6186528328  6.1921562410
F  -0.9601897021  1.7311131593  4.4796156992
F  -1.6539807042  3.5724178443  5.3619804913
F  -1.6327638839  5.5163280598  8.7325496868
F  -1.5633983761  3.5311475408  7.8746418813
F  -0.0054084350  5.0795526044  3.7674680847
F  -1.3786274266  3.7855702226  2.6842099765
F   0.9115790620  5.1158715920  9.8866843276
F   0.9083707813  3.0696879030  9.1401982271
F  -0.6439984165  3.7272793995  10.4979362116
O   0.6388379132  2.1850000000  1.9538835996
O   2.0516067204  3.5235530328  3.1278189200
C   1.0481144594  4.2571413960  6.4103651042
C   0.5482683955  2.9429745002  5.8155026065
C   0.0181336842  5.1363681334  7.1122428888
C  -0.5505444081  3.0083650218  4.7587760903
C  -0.7611932835  4.5527144944  8.2775238963
C  -0.2737840562  3.7701426602  3.4904316474
C   0.1147008483  4.1186265514  9.4394989076
C   0.9079564761  3.1054589271  2.7769818155

