%NProcShared=8
%Mem=48GB
%Chk=opt.chk
#p PBEPBE/Gen 5D 7F SCF=(XQC,Tight) Integral=UltraFine NoSymm EmpiricalDispersion=GD3BJ SCRF=(SMD,Solvent=Water) Opt=(Cartesian,CalcFC,Tight,MaxCycles=300)

PPh3_PFOS_s6_c3_p3__water | opt | def2-SVPD

0 1
C -0.2531808194 2.1007233722 1.9571789523
C 0.0824506760 3.4347144110 2.2024996164
C 0.7916514144 4.1635580191 1.2520561884
C 1.1650555035 3.5581242596 0.0564224969
C 0.8266688638 2.2256015773 -0.1862811957
C 0.1102814903 1.4746675808 0.7574300231
P -0.2952395771 -0.2325549256 0.4382895505
C 1.2597642756 -1.1905337296 0.4386977990
C 2.3229319162 -0.8335260891 -0.5709128005
C 3.4090841676 -0.0286781331 -0.1980051276
C 4.3871984449 0.3217640227 -1.1300006296
C 4.2909323433 -0.1288428738 -2.4442646387
C 3.2172302921 -0.9301731790 -2.8259256249
C 2.2386896312 -1.2817468356 -1.8941902497
C -1.1309162637 -0.4874997766 -1.1191572567
C -1.3786901420 -1.7966908733 -1.5604603384
C -2.0462989498 -2.0361820988 -2.7625868860
C -2.4892252275 -0.9675188160 -3.5362170474
C -2.2740590291 0.3373418344 -3.1007454767
C -1.6068019494 0.5745669674 -1.8967196396
C -1.3647301464 -0.8716114248 1.7274706580
C -0.8696022475 -1.6012972042 2.8152976635
C -1.7305975480 -2.0753228519 3.8083301929
C -3.0976421345 -1.8224325106 3.7292111587
C -3.6048306452 -1.0919541321 2.6587476917
C -2.7440214288 -0.6183358817 1.6676499962
H -0.8042210186 1.5575885123 2.7206537748
H -0.2111293486 3.9024357645 3.1386488001
H 1.0531805216 5.2005040406 1.4434607317
H 1.7212763503 4.1192427006 -0.6897166379
H 1.1291061106 1.7713601434 -1.1281322923
H 1.0150422629 -2.2537829365 0.3261828299
H 1.7009745944 -1.0958306401 1.4381373930
H 3.4938582454 0.3432572570 0.8211613209
H 5.2214967723 0.9499582002 -0.8295876988
H 5.0511154052 0.1446378561 -3.1708228022
H 3.1387828568 -1.2821440502 -3.8512176821
H 1.4113454117 -1.9087465192 -2.2155314357
H -1.0571665632 -2.6432216560 -0.9581553039
H -2.2264120430 -3.0566691786 -3.0898481842
H -3.0113617238 -1.1504783189 -4.4713267366
H -2.6319360552 1.1746325747 -3.6942714340
H -1.4767089350 1.6022116516 -1.5693325540
H 0.1915768413 -1.8065378132 2.9132783148
H -1.3318876126 -2.6410842925 4.6465466757
H -3.7662871553 -2.1916889459 4.5020259630
H -4.6703569930 -0.8884603426 2.5930215098
H -3.1563908344 -0.0433447159 0.8410103718
O -4.7908791965 2.9284884754 1.1805801434
S -3.8582617389 2.6406796782 0.0878820522
O -2.5873843541 2.0695284078 0.5330769333
O -4.4680418865 1.9391830204 -1.0393919568
C -3.4515091681 4.2702142812 -0.5604920373
F -2.8214547915 5.0526061017 0.3855524830
F -2.5486935820 4.2094484729 -1.6019305823
C -4.6889578227 5.0072362995 -1.0400234986
F -5.2215766058 4.4912825294 -2.1802671693
F -4.2168552287 6.2544271783 -1.4528461103
C -5.7704840408 5.2910295342 -0.0012181721
F -5.2449050572 5.4247033195 1.2349978427
F -6.2516613082 6.5702955017 -0.2620968066
C -7.0122381465 4.4026975292 -0.0868864719
F -7.6493884392 4.7531052438 -1.2658630648
F -6.7797154058 3.0862677492 -0.2335484677
C -8.0161596500 4.6320750710 1.0346870498
F -8.2691957619 5.9663895719 1.1700838937
F -9.2161633269 4.0921021835 0.6317735528
C -7.6651424558 4.0232780913 2.3835866555
F -6.5284126927 4.5601691162 2.8859375467
F -7.4622415903 2.6871393942 2.2625982218
C -8.7848597291 4.2595719330 3.3733032279
F -9.9605980387 3.7275934015 2.9287427389
F -9.0222329285 5.5965265144 3.5251380153
C -8.4285752913 3.6509383660 4.7161603681
F -9.4288631498 3.8623456748 5.6162396060
F -7.3138605113 4.1899824461 5.2607093396
F -8.2494153695 2.3120313888 4.6599445752

H     0
S    3   1.00
     13.0107010              0.19682158D-01
      1.9622572              0.13796524
      0.44453796             0.47831935
S    1   1.00
      0.12194962             1.0000000
P    1   1.00
      0.8000000              1.0000000
P    1   1.00
      0.11704099050          1.0000000
****
C     0
S    5   1.00
   1238.4016938              0.54568832082D-02
    186.29004992             0.40638409211D-01
     42.251176346            0.18025593888
     11.676557932            0.46315121755
      3.5930506482           0.44087173314
S    1   1.00
      0.40245147363          1.0000000
S    1   1.00
      0.13090182668          1.0000000
S    1   1.00
      0.67053540256D-01      1.0000000
P    3   1.00
      9.4680970621           0.38387871728D-01
      2.0103545142           0.21117025112
      0.54771004707          0.51328172114
P    1   1.00
      0.15268613795          1.0000000
D    1   1.00
      0.8000000              1.0000000
D    1   1.00
      0.11713185140          1.0000000
****
O     0
S    5   1.00
   2266.1767785             -0.53431809926D-02
    340.87010191            -0.39890039230D-01
     77.363135167           -0.17853911985
     21.479644940           -0.46427684959
      6.6589433124          -0.44309745172
S    1   1.00
      0.80975975668          1.0000000
S    1   1.00
      0.25530772234          1.0000000
S    1   1.00
      0.76572453250D-01      1.0000000
P    3   1.00
     17.721504317            0.43394573193D-01
      3.8635505440           0.23094120765
      1.0480920883           0.51375311064
P    1   1.00
      0.27641544411          1.0000000
P    1   1.00
      0.69002276350D-01      1.0000000
D    1   1.00
      1.2000000              1.0000000
D    1   1.00
      0.17992024323          1.0000000
****
F     0
S    5   1.00
   2894.8325990             -0.53408255515D-02
    435.41939120            -0.39904258866D-01
     98.843328866           -0.17912768038
     27.485198001           -0.46758090825
      8.5405498171          -0.44653131020
S    1   1.00
      1.0654578038           1.0000000
S    1   1.00
      0.33247346748          1.0000000
S    1   1.00
      0.98097752264D-01      1.0000000
P    3   1.00
     22.696633924           -0.45212874436D-01
      4.9872339257          -0.23754317067
      1.3491613954          -0.51287353587
P    1   1.00
      0.34829881977          1.0000000
P    1   1.00
      0.83372148304D-01      1.0000000
D    1   1.00
      1.4000000              1.0000000
D    1   1.00
      0.22301361948          1.0000000
****
P     0
S    5   1.00
   8002.4795106              0.57503489302D-02
   1203.6813590              0.43007628959D-01
    273.44227031             0.19363986252
     76.655541517            0.49651693399
     23.516927435            0.44983262479
S    3   1.00
     39.791683439            0.95188129789D-01
      4.2770343323          -0.57649840368
      1.6940256888          -0.54239583865
S    1   1.00
      0.27567674644          1.0000000
S    1   1.00
      0.10495590099          1.0000000
S    1   1.00
      0.64309734755D-01      1.0000000
P    5   1.00
    219.50755823             0.92100565257D-02
     51.274155030            0.65409765745D-01
     15.921595892            0.24033730279
      5.5069913481           0.46318321788
      1.9537719426           0.37392563382
P    1   1.00
      0.47803397932          1.0000000
P    1   1.00
      0.13657952621          1.0000000
D    1   1.00
      0.4500000              1.0000000
D    1   1.00
      0.99587311089D-01      1.0000000
****
S     0
S    5   1.00
   9184.9303010             -0.22294387756D-02
   1381.5105503             -0.16683029937D-01
    313.87147580            -0.75262436116D-01
     88.053870623           -0.19376827038
     27.039914905           -0.17718020803
S    3   1.00
     45.648731303           -0.10736062573
      4.9664522326           0.65066293018
      2.0116242047           0.59712155354
S    1   1.00
      0.35661077013          1.0000000
S    1   1.00
      0.13507221477          1.0000000
S    1   1.00
      0.44999823506D-01      1.0000000
P    5   1.00
    261.98233439            -0.92729929822D-02
     61.306894736           -0.66547669241D-01
     19.103729887           -0.24828595903
      6.6567720378          -0.48703847402
      2.3959635161          -0.39337850312
P    1   1.00
      0.61776161679          1.0000000
P    1   1.00
      0.16993376871          1.0000000
P    1   1.00
      0.41706793676D-01      1.0000000
D    1   1.00
      0.5500000              1.0000000
D    1   1.00
      0.10172853717          1.0000000
****

