%NProcShared=8
%Mem=48GB
%Chk=opt.chk
#p PBEPBE/6-31+G(d,p) Opt=(CalcFC,Tight,MaxCycles=250) EmpiricalDispersion=GD3BJ SCF=(XQC,Tight) Integral=UltraFine NoSymm

PCy3_PFOS_head_axial__unsolvated | opt

0 1
C   0.1110865041 -2.7942378084  0.3332582744
C  -0.3301023840 -3.6727578635 -0.8318547640
C  -1.7583104722 -4.1846059876 -0.6545207639
C  -2.6473080080 -3.2318069829  0.1415309407
C  -2.2072386727 -1.7812592718 -0.0122724105
C  -0.7805542485 -1.5490717949  0.5179891753
P   0.0000000000  0.0000000000  0.0000000000
C   1.4081210239  0.3062430990  1.0629130539
C   1.2465849868  0.4035577703  2.5576950091
C   1.2156425803  1.6547996161  3.1888335196
C   1.0752572299  1.7508515140  4.5745265020
C   0.9735109433  0.5962903038  5.3465305269
C   1.0184509798 -0.6535677244  4.7335110417
C   1.1592757748 -0.7489796921  3.3476923340
C   0.6449956093 -0.1753573578 -1.6898805903
C  -0.4221572465 -0.1210823717 -2.7931779601
C   0.1546172482 -0.3303393839 -4.1910756040
C   1.2720139992  0.6575985639 -4.4913449982
C   2.3594116448  0.5842882235 -3.4299150795
C   1.7944753618  0.7942233744 -2.0271934131
C  -1.1920360467  1.3390109355  0.0956418175
C  -1.9161530935  1.4848334369  1.4392731468
C  -3.1346341165  2.4049523734  1.3285755697
C  -2.9319393344  3.5558212187  0.3422438890
C  -1.4593456288  3.9040299780  0.1790316539
C  -0.6456242184  2.7125743690 -0.3357423585
H   0.0715223308 -3.3976193066  1.2498898155
H   1.1592052653 -2.5083791838  0.2040875409
H  -0.2652440025 -3.1042807500 -1.7663601827
H   0.3519017706 -4.5236761582 -0.9417423574
H  -1.7456025936 -5.1585014349 -0.1503021784
H  -2.1942793901 -4.3604020849 -1.6454647613
H  -2.6156064217 -3.5056281292  1.2037737142
H  -3.6892868404 -3.3485641803 -0.1774845288
H  -2.2894209672 -1.4937493964 -1.0604660155
H  -2.9120661782 -1.1380801649  0.5242889286
H  -0.8974764951 -1.4314086286  1.6019195109
H   2.1547966523 -0.4736849863  0.8664716245
H   1.8888621034  1.2324970241  0.7278616028
H   1.2938869250  2.5675314600  2.6022099486
H   1.0456291141  2.7274454096  5.0501824177
H   0.8644323814  0.6701926314  6.4250392827
H   0.9480262781 -1.5562844224  5.3344699873
H   1.2083885351 -1.7338201032  2.8909479511
H   1.0907946019 -1.1762424621 -1.7228891150
H  -0.9437279880  0.8411096371 -2.7628480321
H  -1.1772582184 -0.8895465276 -2.6274566947
H  -0.6415361677 -0.2235091142 -4.9365939540
H   0.5366725615 -1.3550770660 -4.2777667987
H   0.8639161123  1.6749230282 -4.5315066109
H   1.7007294116  0.4443853066 -5.4768877761
H   3.1258163745  1.3405333331 -3.6342824348
H   2.8553930690 -0.3929686360 -3.4799390026
H   1.4549669132  1.8293265823 -1.9290591545
H   2.6145514477  0.6657043639 -1.3139003577
H  -1.9651348439  1.0640460595 -0.6342240089
H  -2.2297801583  0.5189600350  1.8423138973
H  -1.2338179236  1.9064080165  2.1812181138
H  -3.3643913738  2.8046411076  2.3237084933
H  -4.0129253518  1.8249566026  1.0203618660
H  -3.3443456406  3.2738099493 -0.6347785116
H  -3.4970214689  4.4330446724  0.6768052831
H  -1.0559709654  4.2290118329  1.1465219967
H  -1.3431056060  4.7514340457 -0.5061195255
H  -0.6221259669  2.7511276094 -1.4306923258
H   0.3909957790  2.8364943487 -0.0066794780
O   2.8157920472 -1.1645833333 -1.1302923545
S   4.0819355318 -1.6882475724 -1.6385373798
O   3.9455164917 -2.5257275017 -2.8312167787
O   5.1346683399 -0.6768706268 -1.7510431475
C   4.6846818325 -2.8037003359 -0.3445293499
F   5.9670455427 -3.2425524931 -0.5848230198
F   3.9476215226 -3.9684848845 -0.2701626723
C   4.6440184584 -2.1309745113  1.0111255420
F   5.1962664446 -3.0239871133  1.9194462502
F   3.3508398917 -2.0087450725  1.4540301869
C   5.3582976479 -0.8019938183  1.2188873895
F   4.7550851311  0.2213805128  0.5747599122
F   5.1997466884 -0.4810170852  2.5554804722
C   6.8569447619 -0.8400250801  0.9487411308
F   7.1424417907 -1.2561692230 -0.3016486014
F   7.4415189147 -1.7595993907  1.7727671475
C   7.4981902442  0.5164076917  1.1880280539
F   7.0429117770  1.4377266048  0.2968915897
F   7.1256630783  0.9941910020  2.4183973072
C   9.0195607335  0.5058203757  1.1640411039
F   9.4940970049 -0.2491199702  2.1989386804
F   9.4442391093  1.7805592072  1.4425083102
C   9.6481269615  0.0445322503 -0.1287503833
F   9.4354681056 -1.2870732405 -0.3142835198
F   9.0931580310  0.6823684135 -1.1924067673
C   11.1426653182  0.3066131456 -0.0884599338
F   11.7534195172 -0.1336195413 -1.2188633172
F   11.7504198225 -0.3231567899  0.9458057625
F   11.4433024611  1.6226710224  0.0182456143

