%NProcShared=8
%Mem=48GB
%Chk=opt.chk
#p PBEPBE/Gen 5D 7F SCF=(XQC,Tight) Integral=UltraFine NoSymm EmpiricalDispersion=GD3BJ SCRF=(SMD,Solvent=Water) Opt=(Cartesian,CalcFC,Tight,MaxCycles=300)

PPh3_PFNA_s6_c3_p3__water | opt | def2-SVPD

0 1
C -0.2531808194 2.1007233722 1.9571789523
C 0.0824506760 3.4347144110 2.2024996164
C 0.7916514144 4.1635580191 1.2520561884
C 1.1650555035 3.5581242596 0.0564224969
C 0.8266688638 2.2256015773 -0.1862811957
C 0.1102814903 1.4746675808 0.7574300231
P -0.2952395771 -0.2325549256 0.4382895505
C 1.2597642756 -1.1905337296 0.4386977990
C 2.3229319162 -0.8335260891 -0.5709128005
C 3.4090841676 -0.0286781331 -0.1980051276
C 4.3871984449 0.3217640227 -1.1300006296
C 4.2909323433 -0.1288428738 -2.4442646387
C 3.2172302921 -0.9301731790 -2.8259256249
C 2.2386896312 -1.2817468356 -1.8941902497
C -1.1309162637 -0.4874997766 -1.1191572567
C -1.3786901420 -1.7966908733 -1.5604603384
C -2.0462989498 -2.0361820988 -2.7625868860
C -2.4892252275 -0.9675188160 -3.5362170474
C -2.2740590291 0.3373418344 -3.1007454767
C -1.6068019494 0.5745669674 -1.8967196396
C -1.3647301464 -0.8716114248 1.7274706580
C -0.8696022475 -1.6012972042 2.8152976635
C -1.7305975480 -2.0753228519 3.8083301929
C -3.0976421345 -1.8224325106 3.7292111587
C -3.6048306452 -1.0919541321 2.6587476917
C -2.7440214288 -0.6183358817 1.6676499962
H -0.8042210186 1.5575885123 2.7206537748
H -0.2111293486 3.9024357645 3.1386488001
H 1.0531805216 5.2005040406 1.4434607317
H 1.7212763503 4.1192427006 -0.6897166379
H 1.1291061106 1.7713601434 -1.1281322923
H 1.0150422629 -2.2537829365 0.3261828299
H 1.7009745944 -1.0958306401 1.4381373930
H 3.4938582454 0.3432572570 0.8211613209
H 5.2214967723 0.9499582002 -0.8295876988
H 5.0511154052 0.1446378561 -3.1708228022
H 3.1387828568 -1.2821440502 -3.8512176821
H 1.4113454117 -1.9087465192 -2.2155314357
H -1.0571665632 -2.6432216560 -0.9581553039
H -2.2264120430 -3.0566691786 -3.0898481842
H -3.0113617238 -1.1504783189 -4.4713267366
H -2.6319360552 1.1746325747 -3.6942714340
H -1.4767089350 1.6022116516 -1.5693325540
H 0.1915768413 -1.8065378132 2.9132783148
H -1.3318876126 -2.6410842925 4.6465466757
H -3.7662871553 -2.1916889459 4.5020259630
H -4.6703569930 -0.8884603426 2.5930215098
H -3.1563908344 -0.0433447159 0.8410103718
O -3.9729669667 3.0041482032 -1.0071252923
C -3.6893197515 2.5647546268 0.1470632989
O -2.5873843541 2.0695284078 0.5330769333
C -4.8038582257 2.6334927721 1.2082292388
F -5.6253510021 3.7024198950 0.9676763979
F -5.5965211756 1.5214218925 1.0724855067
C -4.2642937911 2.7053132570 2.6143261174
F -3.5345526223 1.6110022470 2.9598850309
F -5.3435980676 2.6663216640 3.4748475021
C -3.5051390576 3.9884062191 2.9113809570
F -4.3839360769 5.0407271896 2.9311148209
F -2.6086856907 4.3129459000 1.9416941441
C -2.7572966560 3.9590708050 4.2380442476
F -1.7329934618 3.0610409899 4.2004852554
F -2.1481784368 5.1797811101 4.3992441310
C -3.6191991592 3.6860608509 5.4585545125
F -4.7061121621 4.5044138296 5.4609792222
F -4.0973521521 2.4147569919 5.4330881046
C -2.8304315605 3.8888742296 6.7425820229
F -2.3768049775 5.1704666063 6.8239921462
F -1.7218279503 3.0999856807 6.7497725935
C -3.6826629553 3.5809497713 7.9530017383
F -4.1369622524 2.2962614860 7.9175254256
F -4.7951628777 4.3699242872 7.9753192849
C -2.8732013466 3.8023242040 9.2158510233
F -1.7805608946 3.0065823177 9.2826457752
F -3.6125776216 3.5341797141 10.3241165510
F -2.4446392575 5.0802151277 9.3430832401

H     0
S    3   1.00
     13.0107010              0.19682158D-01
      1.9622572              0.13796524
      0.44453796             0.47831935
S    1   1.00
      0.12194962             1.0000000
P    1   1.00
      0.8000000              1.0000000
P    1   1.00
      0.11704099050          1.0000000
****
C     0
S    5   1.00
   1238.4016938              0.54568832082D-02
    186.29004992             0.40638409211D-01
     42.251176346            0.18025593888
     11.676557932            0.46315121755
      3.5930506482           0.44087173314
S    1   1.00
      0.40245147363          1.0000000
S    1   1.00
      0.13090182668          1.0000000
S    1   1.00
      0.67053540256D-01      1.0000000
P    3   1.00
      9.4680970621           0.38387871728D-01
      2.0103545142           0.21117025112
      0.54771004707          0.51328172114
P    1   1.00
      0.15268613795          1.0000000
D    1   1.00
      0.8000000              1.0000000
D    1   1.00
      0.11713185140          1.0000000
****
O     0
S    5   1.00
   2266.1767785             -0.53431809926D-02
    340.87010191            -0.39890039230D-01
     77.363135167           -0.17853911985
     21.479644940           -0.46427684959
      6.6589433124          -0.44309745172
S    1   1.00
      0.80975975668          1.0000000
S    1   1.00
      0.25530772234          1.0000000
S    1   1.00
      0.76572453250D-01      1.0000000
P    3   1.00
     17.721504317            0.43394573193D-01
      3.8635505440           0.23094120765
      1.0480920883           0.51375311064
P    1   1.00
      0.27641544411          1.0000000
P    1   1.00
      0.69002276350D-01      1.0000000
D    1   1.00
      1.2000000              1.0000000
D    1   1.00
      0.17992024323          1.0000000
****
F     0
S    5   1.00
   2894.8325990             -0.53408255515D-02
    435.41939120            -0.39904258866D-01
     98.843328866           -0.17912768038
     27.485198001           -0.46758090825
      8.5405498171          -0.44653131020
S    1   1.00
      1.0654578038           1.0000000
S    1   1.00
      0.33247346748          1.0000000
S    1   1.00
      0.98097752264D-01      1.0000000
P    3   1.00
     22.696633924           -0.45212874436D-01
      4.9872339257          -0.23754317067
      1.3491613954          -0.51287353587
P    1   1.00
      0.34829881977          1.0000000
P    1   1.00
      0.83372148304D-01      1.0000000
D    1   1.00
      1.4000000              1.0000000
D    1   1.00
      0.22301361948          1.0000000
****
P     0
S    5   1.00
   8002.4795106              0.57503489302D-02
   1203.6813590              0.43007628959D-01
    273.44227031             0.19363986252
     76.655541517            0.49651693399
     23.516927435            0.44983262479
S    3   1.00
     39.791683439            0.95188129789D-01
      4.2770343323          -0.57649840368
      1.6940256888          -0.54239583865
S    1   1.00
      0.27567674644          1.0000000
S    1   1.00
      0.10495590099          1.0000000
S    1   1.00
      0.64309734755D-01      1.0000000
P    5   1.00
    219.50755823             0.92100565257D-02
     51.274155030            0.65409765745D-01
     15.921595892            0.24033730279
      5.5069913481           0.46318321788
      1.9537719426           0.37392563382
P    1   1.00
      0.47803397932          1.0000000
P    1   1.00
      0.13657952621          1.0000000
D    1   1.00
      0.4500000              1.0000000
D    1   1.00
      0.99587311089D-01      1.0000000
****

