%NProcShared=8
%Mem=30GB
%Chk=opt.chk
#p PBEPBE/Gen 5D 7F SCF=(XQC,Tight) Integral=UltraFine NoSymm EmpiricalDispersion=GD3BJ Opt=(Cartesian,CalcFC,Tight,MaxCycles=300)

free_PFHpA_c1__unsolvated | opt | def2-SVPD

-1 1
O -3.3921608134 1.6623812127 -1.2793577460
C -2.2275016412 1.1741320473 -1.3134189988
O -1.1239951565 1.7998031574 -1.2832432197
C -2.0976008462 -0.3516463022 -1.3588904406
F -3.2789823794 -0.9351666664 -1.7272098266
F -1.1948045058 -0.7232188473 -2.3140327967
C -1.6683540722 -0.8348655165 0.0020848886
F -1.5754690284 -2.2127722187 -0.0564484602
F -2.6673699648 -0.6199198364 0.9193965228
C -0.3587131321 -0.3183613451 0.5938083188
F -0.1686859861 -0.9903520973 1.7867232344
F -0.4489530180 0.9754456014 0.9771768130
C 0.8744260210 -0.5710428470 -0.2585873643
F 0.8784304331 0.1249631803 -1.4186128434
F 0.8778960104 -1.8916477210 -0.6418244071
C 2.1798905097 -0.3174255694 0.4671183229
F 2.3135817013 -1.1702002819 1.5299598933
F 3.2134505325 -0.6624144722 -0.3761686112
C 2.3878365327 1.1127009963 0.9265690701
F 2.2608023978 2.0146171696 -0.0668589424
F 3.6510429910 1.2637834397 1.4205284217
F 1.5652334146 1.4712069166 1.9350968696

C     0
S    5   1.00
   1238.4016938              0.54568832082D-02
    186.29004992             0.40638409211D-01
     42.251176346            0.18025593888
     11.676557932            0.46315121755
      3.5930506482           0.44087173314
S    1   1.00
      0.40245147363          1.0000000
S    1   1.00
      0.13090182668          1.0000000
S    1   1.00
      0.67053540256D-01      1.0000000
P    3   1.00
      9.4680970621           0.38387871728D-01
      2.0103545142           0.21117025112
      0.54771004707          0.51328172114
P    1   1.00
      0.15268613795          1.0000000
D    1   1.00
      0.8000000              1.0000000
D    1   1.00
      0.11713185140          1.0000000
****
O     0
S    5   1.00
   2266.1767785             -0.53431809926D-02
    340.87010191            -0.39890039230D-01
     77.363135167           -0.17853911985
     21.479644940           -0.46427684959
      6.6589433124          -0.44309745172
S    1   1.00
      0.80975975668          1.0000000
S    1   1.00
      0.25530772234          1.0000000
S    1   1.00
      0.76572453250D-01      1.0000000
P    3   1.00
     17.721504317            0.43394573193D-01
      3.8635505440           0.23094120765
      1.0480920883           0.51375311064
P    1   1.00
      0.27641544411          1.0000000
P    1   1.00
      0.69002276350D-01      1.0000000
D    1   1.00
      1.2000000              1.0000000
D    1   1.00
      0.17992024323          1.0000000
****
F     0
S    5   1.00
   2894.8325990             -0.53408255515D-02
    435.41939120            -0.39904258866D-01
     98.843328866           -0.17912768038
     27.485198001           -0.46758090825
      8.5405498171          -0.44653131020
S    1   1.00
      1.0654578038           1.0000000
S    1   1.00
      0.33247346748          1.0000000
S    1   1.00
      0.98097752264D-01      1.0000000
P    3   1.00
     22.696633924           -0.45212874436D-01
      4.9872339257          -0.23754317067
      1.3491613954          -0.51287353587
P    1   1.00
      0.34829881977          1.0000000
P    1   1.00
      0.83372148304D-01      1.0000000
D    1   1.00
      1.4000000              1.0000000
D    1   1.00
      0.22301361948          1.0000000
****

