%NProcShared=8
%Mem=30GB
%Chk=opt.chk
#p PBEPBE/6-31+G(d,p) Opt=(CalcFC,Tight,MaxCycles=250) EmpiricalDispersion=GD3BJ SCF=(XQC,Tight) Integral=UltraFine NoSymm SCRF=(SMD,Solvent=Water)

free_PFOS__water | opt

-1 1
O   4.2077363504  0.5360667485 -1.4641874359
S   3.3092993487  1.4148413017 -0.7183839745
O   3.8993821010  2.7051424471 -0.3586726530
O   1.9727503847  1.5260826358 -1.3057930923
C   3.0241701969  0.5697910212  0.8585073160
F   2.0457872853  1.1787260223  1.6113379687
F   4.1346106553  0.5986975339  1.6780179930
C   2.6392597815 -0.8771693990  0.6345357880
F   2.3627195711 -1.4171999307  1.8832905243
F   3.7235212417 -1.6096711088  0.2207318533
C   1.4526104060 -1.2157936270 -0.2580706875
F   1.6938599995 -0.9670562340 -1.5642057924
F   1.3121758229 -2.5915704195 -0.2115746254
C   0.1268540628 -0.6209806542  0.1990247029
F   0.1767159690  0.7222898149  0.3053130875
F  -0.1588790511 -1.0679117168  1.4579813908
C  -1.0071914656 -1.0117719870 -0.7334916446
F  -0.8324013580 -0.4730721256 -1.9702139650
F  -0.9983606007 -2.3690418450 -0.9299666524
C  -2.3943154179 -0.6517911408 -0.2220656360
F  -2.6677598771 -1.3601015781  0.9135650454
F  -3.3035500191 -1.1090819299 -1.1424092515
C  -2.6364265504  0.8173773581  0.0271695714
F  -1.9111473215  1.2458903548  1.0963590627
F  -2.2411124523  1.5615971763 -1.0386887748
C  -4.1107858962  1.0491715778  0.3037388666
F  -4.3644475757  2.3555419645  0.5751969379
F  -4.5539535739  0.3426558464  1.3715024969
F  -4.9011220171  0.7183418929 -0.7449258255

