%NProcShared=8
%Mem=48GB
%Chk=opt.chk
#p PBEPBE/Gen 5D 7F SCF=(XQC,Tight) Integral=UltraFine NoSymm EmpiricalDispersion=GD3BJ SCRF=(SMD,Solvent=Water) Opt=(Cartesian,CalcFC,Tight,MaxCycles=300)

PCy3_PFHpA_s6_c1_p1__water | opt | def2-SVPD

0 1
C -1.2393273515 -2.4705716776 0.6076825946
C -1.3636622742 -3.4365360185 1.7839473596
C -2.0917909678 -2.7866598731 2.9541977646
C -1.4270041920 -1.4782343502 3.3624250367
C -1.2629297151 -0.5245260782 2.1802436925
C -0.5173168955 -1.1714541855 1.0033842969
P -0.1578009942 -0.0349006803 -0.3434813371
C 0.5977720974 -0.9128717057 -1.7104426679
C 2.0090263024 -1.4241259983 -1.5710446765
C 3.0817907425 -0.6718029344 -2.0726498454
C 4.3950449497 -1.1249526272 -1.9369772921
C 4.6515095774 -2.3359982866 -1.2992752466
C 3.5949845234 -3.0935362839 -0.7989165247
C 2.2809040827 -2.6403860684 -0.9341813045
C -1.6493752981 0.7562989927 -0.9824822590
C -2.7877128763 -0.2061452072 -1.3629914402
C -3.7987808058 0.3691481810 -2.3604984493
C -3.9295850465 1.8793005204 -2.2267474844
C -2.5950295118 2.5831837147 -2.4725087369
C -1.3846294950 1.6985294817 -2.1682605454
C 0.9954813546 1.2536070970 0.2067280392
C 2.0865648555 0.7457495208 1.1668338134
C 3.1324652833 1.8148931253 1.4688364074
C 2.4895886307 3.0692483098 2.0467709277
C 1.3827865286 3.5921725505 1.1402410565
C 0.3504095912 2.5119843625 0.8174784598
H -2.2438331671 -2.2539809282 0.2383309027
H -0.7163142532 -2.9720688495 -0.2092927688
H -0.3651022743 -3.7601847445 2.1020175893
H -1.9056655022 -4.3348384178 1.4673913523
H -3.1347621736 -2.5938616370 2.6741523626
H -2.1116268118 -3.4744592177 3.8069144780
H -0.4411081482 -1.6909557966 3.7942808439
H -2.0189914912 -0.9932035526 4.1468225468
H -2.2479531589 -0.1766921315 1.8480535742
H -0.7239825501 0.3578743441 2.5299988465
H 0.4669936282 -1.4808804409 1.3770353186
H -0.0449684419 -1.7505048433 -2.0040983181
H 0.5833769327 -0.2472099995 -2.5810245228
H 2.9007114172 0.2790510551 -2.5689251462
H 5.2169792189 -0.5311738180 -2.3276789863
H 5.6733464612 -2.6895475291 -1.1925208183
H 3.7930444801 -4.0395000128 -0.3018510593
H 1.4755485713 -3.2505651825 -0.5377472565
H -2.0246375479 1.3688503555 -0.1526411565
H -3.3246703145 -0.4811076757 -0.4478301406
H -2.3831646140 -1.1341313799 -1.7804014537
H -4.7729406226 -0.1111056818 -2.2139532807
H -3.4821317000 0.1233686133 -3.3820723103
H -4.6831713368 2.2611077863 -2.9246501232
H -4.2880136751 2.1209318611 -1.2181407652
H -2.5354086619 2.9132252586 -3.5166497822
H -2.5560400916 3.4921686693 -1.8601796175
H -1.1485449548 1.1032738339 -3.0591239354
H -0.5073571502 2.3292337474 -1.9988379031
H 1.4946420571 1.5826530884 -0.7143343713
H 2.5872684704 -0.1333997211 0.7579935489
H 1.6304795318 0.4226245366 2.1095804872
H 3.6753631134 2.0671884224 0.5497518170
H 3.8692212271 1.4199590646 2.1774214584
H 3.2506457383 3.8446983712 2.1883775664
H 2.0741632831 2.8439733246 3.0367530288
H 0.8862708372 4.4434233627 1.6197506194
H 1.8214886167 3.9648631199 0.2063070606
H -0.3844848123 2.9443130721 0.1346044953
H -0.1980532265 2.2551757917 1.7281041799
O 1.3889699696 1.5088493197 -2.7490655744
C 1.9902214450 2.1089265042 -3.6841497632
O 2.5621687474 3.2406218018 -3.6367840168
C 2.0906446595 1.3966940502 -5.0367700165
F 1.1880308800 0.3720250685 -5.1213829927
F 1.7651556507 2.2530039643 -6.0497826250
C 3.4966028239 0.8807116839 -5.2012427695
F 3.5596717370 0.2269615109 -6.4175131702
F 3.7470107227 -0.1148521326 -4.2891881633
C 4.6595729939 1.8695362339 -5.1588285980
F 5.8064261029 1.1468326113 -5.4293009686
F 4.8785604796 2.3441836620 -3.9115093308
C 4.5883407466 2.9885004208 -6.1854266830
F 3.5695788657 3.8521282135 -5.9700878735
F 4.3254654771 2.4359485020 -7.4168741544
C 5.8755821383 3.7760639691 -6.3194462941
F 6.8907004000 2.9686217863 -6.7579691383
F 5.7123417742 4.6955628220 -7.3324966186
C 6.3085229788 4.5104496885 -5.0653177619
F 5.3537128881 5.3204001853 -4.5665116327
F 7.3810898549 5.3083266085 -5.3400995275
F 6.7219288865 3.6833370334 -4.0817981034

H     0
S    3   1.00
     13.0107010              0.19682158D-01
      1.9622572              0.13796524
      0.44453796             0.47831935
S    1   1.00
      0.12194962             1.0000000
P    1   1.00
      0.8000000              1.0000000
P    1   1.00
      0.11704099050          1.0000000
****
C     0
S    5   1.00
   1238.4016938              0.54568832082D-02
    186.29004992             0.40638409211D-01
     42.251176346            0.18025593888
     11.676557932            0.46315121755
      3.5930506482           0.44087173314
S    1   1.00
      0.40245147363          1.0000000
S    1   1.00
      0.13090182668          1.0000000
S    1   1.00
      0.67053540256D-01      1.0000000
P    3   1.00
      9.4680970621           0.38387871728D-01
      2.0103545142           0.21117025112
      0.54771004707          0.51328172114
P    1   1.00
      0.15268613795          1.0000000
D    1   1.00
      0.8000000              1.0000000
D    1   1.00
      0.11713185140          1.0000000
****
O     0
S    5   1.00
   2266.1767785             -0.53431809926D-02
    340.87010191            -0.39890039230D-01
     77.363135167           -0.17853911985
     21.479644940           -0.46427684959
      6.6589433124          -0.44309745172
S    1   1.00
      0.80975975668          1.0000000
S    1   1.00
      0.25530772234          1.0000000
S    1   1.00
      0.76572453250D-01      1.0000000
P    3   1.00
     17.721504317            0.43394573193D-01
      3.8635505440           0.23094120765
      1.0480920883           0.51375311064
P    1   1.00
      0.27641544411          1.0000000
P    1   1.00
      0.69002276350D-01      1.0000000
D    1   1.00
      1.2000000              1.0000000
D    1   1.00
      0.17992024323          1.0000000
****
F     0
S    5   1.00
   2894.8325990             -0.53408255515D-02
    435.41939120            -0.39904258866D-01
     98.843328866           -0.17912768038
     27.485198001           -0.46758090825
      8.5405498171          -0.44653131020
S    1   1.00
      1.0654578038           1.0000000
S    1   1.00
      0.33247346748          1.0000000
S    1   1.00
      0.98097752264D-01      1.0000000
P    3   1.00
     22.696633924           -0.45212874436D-01
      4.9872339257          -0.23754317067
      1.3491613954          -0.51287353587
P    1   1.00
      0.34829881977          1.0000000
P    1   1.00
      0.83372148304D-01      1.0000000
D    1   1.00
      1.4000000              1.0000000
D    1   1.00
      0.22301361948          1.0000000
****
P     0
S    5   1.00
   8002.4795106              0.57503489302D-02
   1203.6813590              0.43007628959D-01
    273.44227031             0.19363986252
     76.655541517            0.49651693399
     23.516927435            0.44983262479
S    3   1.00
     39.791683439            0.95188129789D-01
      4.2770343323          -0.57649840368
      1.6940256888          -0.54239583865
S    1   1.00
      0.27567674644          1.0000000
S    1   1.00
      0.10495590099          1.0000000
S    1   1.00
      0.64309734755D-01      1.0000000
P    5   1.00
    219.50755823             0.92100565257D-02
     51.274155030            0.65409765745D-01
     15.921595892            0.24033730279
      5.5069913481           0.46318321788
      1.9537719426           0.37392563382
P    1   1.00
      0.47803397932          1.0000000
P    1   1.00
      0.13657952621          1.0000000
D    1   1.00
      0.4500000              1.0000000
D    1   1.00
      0.99587311089D-01      1.0000000
****

