%NProcShared=8
%Mem=30GB
%Chk=opt.chk
#p PBEPBE/Gen 5D 7F SCF=(XQC,Tight) Integral=UltraFine NoSymm EmpiricalDispersion=GD3BJ SCRF=(SMD,Solvent=Water) Opt=(Cartesian,CalcFC,Tight,MaxCycles=300)

A400_PFHpA_s1_c2_p2__water | opt | def2-SVPD

0 1
C -1.5001125276 1.4705609743 0.3232784841
N -1.5334601394 -0.0502415300 0.3578010620
C -2.7106275741 -0.4954368264 1.2199233262
C -1.7353510734 -0.5770603765 -1.0552967052
C -0.2420196687 -0.6194562260 0.9829012748
C 1.0513763839 -0.2941859908 0.2790307378
C 1.7828411000 0.8550103511 0.6200118693
C 2.9743428923 1.1599066475 -0.0399552148
C 3.4525362052 0.3190506499 -1.0416260357
C 2.7454954592 -0.8316473871 -1.3807984850
C 1.5536003974 -1.1399846853 -0.7231452102
H -1.2969701399 1.8368793033 1.3337771570
H -0.7246068820 1.7969904643 -0.3743271109
H -2.4756432153 1.8288888451 -0.0201157771
H -2.5675942212 -0.1038477511 2.2314951823
H -3.6323152654 -0.0968719320 0.7852356521
H -2.7382519069 -1.5891376896 1.2314764892
H -0.9513812469 -0.1767586328 -1.7031920182
H -1.6998209013 -1.6699996823 -1.0272595742
H -2.7132559919 -0.2393027420 -1.4125091530
H -0.3706397080 -1.7084027694 1.0375551907
H -0.2034602913 -0.2532789247 2.0171943491
H 1.4447240128 1.5227844099 1.4100523787
H 3.5394441596 2.0495736912 0.2315620420
H 4.3852319973 0.5544919506 -1.5505147384
H 3.1323497281 -1.4931740429 -2.1536470698
H 1.0335684176 -2.0553500981 -0.9989738621
O -3.4558071411 1.8247584700 1.6953200357
C -3.2684634331 3.0274545180 2.0467928257
O -3.2891558453 4.0565111617 1.3063727072
C -2.9991266416 3.2798192722 3.5415672294
F -3.4363378158 2.2202938131 4.2918786537
F -1.6428946266 3.3332544561 3.7399051088
C -3.6438165840 4.5539962830 4.0270266414
F -3.1140203419 5.6634200054 3.4429374821
F -3.3228804018 4.7024792970 5.3619293098
C -5.1623798748 4.5433420455 3.9146731302
F -5.6722143293 3.5057454778 4.6427520444
F -5.6006183947 4.3477160014 2.6487004386
C -5.7431713380 5.8443898469 4.4430538183
F -5.3613380146 6.0484220794 5.7365231588
F -5.2647713265 6.9113936525 3.7465003750
C -7.2535742062 5.8313901008 4.3687171321
F -7.7700711340 4.7950229969 5.0912955509
F -7.6894905163 5.6497913063 3.0907916760
C -7.7969106233 7.1405635669 4.9076858494
F -7.4591915007 7.3547954330 6.2019955049
F -7.3768296009 8.2177688979 4.2041520038
F -9.1561937568 7.1615584743 4.8625319662

H     0
S    3   1.00
     13.0107010              0.19682158D-01
      1.9622572              0.13796524
      0.44453796             0.47831935
S    1   1.00
      0.12194962             1.0000000
P    1   1.00
      0.8000000              1.0000000
P    1   1.00
      0.11704099050          1.0000000
****
C     0
S    5   1.00
   1238.4016938              0.54568832082D-02
    186.29004992             0.40638409211D-01
     42.251176346            0.18025593888
     11.676557932            0.46315121755
      3.5930506482           0.44087173314
S    1   1.00
      0.40245147363          1.0000000
S    1   1.00
      0.13090182668          1.0000000
S    1   1.00
      0.67053540256D-01      1.0000000
P    3   1.00
      9.4680970621           0.38387871728D-01
      2.0103545142           0.21117025112
      0.54771004707          0.51328172114
P    1   1.00
      0.15268613795          1.0000000
D    1   1.00
      0.8000000              1.0000000
D    1   1.00
      0.11713185140          1.0000000
****
N     0
S    5   1.00
   1712.8415853             -0.53934125305D-02
    257.64812677            -0.40221581118D-01
     58.458245853           -0.17931144990
     16.198367905           -0.46376317823
      5.0052600809          -0.44171422662
S    1   1.00
      0.58731856571          1.0000000
S    1   1.00
      0.18764592253          1.0000000
S    1   1.00
      0.96171241529D-01      1.0000000
P    3   1.00
     13.571470233           -0.40072398852D-01
      2.9257372874          -0.21807045028
      0.79927750754         -0.51294466049
P    1   1.00
      0.21954348034          1.0000000
D    1   1.00
      1.0000000              1.0000000
D    1   1.00
      0.16697708112          1.0000000
****
O     0
S    5   1.00
   2266.1767785             -0.53431809926D-02
    340.87010191            -0.39890039230D-01
     77.363135167           -0.17853911985
     21.479644940           -0.46427684959
      6.6589433124          -0.44309745172
S    1   1.00
      0.80975975668          1.0000000
S    1   1.00
      0.25530772234          1.0000000
S    1   1.00
      0.76572453250D-01      1.0000000
P    3   1.00
     17.721504317            0.43394573193D-01
      3.8635505440           0.23094120765
      1.0480920883           0.51375311064
P    1   1.00
      0.27641544411          1.0000000
P    1   1.00
      0.69002276350D-01      1.0000000
D    1   1.00
      1.2000000              1.0000000
D    1   1.00
      0.17992024323          1.0000000
****
F     0
S    5   1.00
   2894.8325990             -0.53408255515D-02
    435.41939120            -0.39904258866D-01
     98.843328866           -0.17912768038
     27.485198001           -0.46758090825
      8.5405498171          -0.44653131020
S    1   1.00
      1.0654578038           1.0000000
S    1   1.00
      0.33247346748          1.0000000
S    1   1.00
      0.98097752264D-01      1.0000000
P    3   1.00
     22.696633924           -0.45212874436D-01
      4.9872339257          -0.23754317067
      1.3491613954          -0.51287353587
P    1   1.00
      0.34829881977          1.0000000
P    1   1.00
      0.83372148304D-01      1.0000000
D    1   1.00
      1.4000000              1.0000000
D    1   1.00
      0.22301361948          1.0000000
****

