%NProcShared=8
%Mem=30GB
%Chk=opt.chk
#p PBEPBE/6-31+G(d,p) Opt=(CalcFC,Tight,MaxCycles=250) EmpiricalDispersion=GD3BJ SCF=(XQC,Tight) Integral=UltraFine NoSymm SCRF=(SMD,Solvent=Water)

A400_PFHpA_alternate_oxygen__water | opt

0 1
C  -0.5566950646 -1.3439910110  0.4592976295
N   0.0000000000  0.0000000000  0.0000000000
C  -0.9594641671  1.0996553712  0.4304987401
C   1.3485241254  0.2247909877  0.6679034873
C   0.1420150732 -0.0422755299 -1.5364310404
C   0.6810559772  1.1994261314 -2.2010522821
C  -0.1877259808  2.2128930114 -2.6370155881
C   0.3139375804  3.3661586663 -3.2424136725
C   1.6859302837  3.5180772901 -3.4257345329
C   2.5587425457  2.5152445016 -3.0115164457
C   2.0609560473  1.3605097366 -2.4057193018
H   0.1424293286 -2.1301424508  0.1588556904
H  -0.6614552734 -1.3248548526  1.5483212912
H  -1.5317440727 -1.4955319577 -0.0133445064
H  -0.5187469867  2.0723055426  0.1973944615
H  -1.9064488236  0.9618991836 -0.0994134768
H  -1.1149952178  1.0177810668  1.5108153356
H   1.2161652754  0.1341287521  1.7506033912
H   2.0463507845 -0.5364429500  0.3071754486
H   1.7059899172  1.2289998720  0.4262394257
H   0.7881721381 -0.8983901726 -1.7707046177
H  -0.8519639239 -0.2766833010 -1.9394119370
H  -1.2658178352  2.1163836549 -2.5238209405
H  -0.3644110007  4.1464237169 -3.5824130181
H   2.0750360572  4.4147647772 -3.9041382234
H   3.6288412348  2.6327438993 -3.1716727930
H   2.7673178724  0.5875890280 -2.1089783858
O  -4.5014998099 -1.4189804033  0.0430641415
C  -3.9733681179 -0.7495373052  0.9756643227
O  -2.8199056720 -0.2250000000  0.9987527227
C  -4.7911637749 -0.5610797982  2.2570593654
F  -4.6013107400  0.6923196382  2.7677460792
F  -6.1305550395 -0.6528717949  1.9973726766
C  -4.3679007594 -1.6049434184  3.2554348445
F  -4.6652482297 -2.8624207068  2.7971325114
F  -5.1684899715 -1.4782295348  4.3713895079
C  -2.9202792888 -1.5915117591  3.7358788917
F  -2.0773428739 -2.0265672359  2.7564654409
F  -2.8110100833 -2.5805806715  4.6998071201
C  -2.3705919667 -0.3117030644  4.3610914705
F  -2.2701836654  0.7058980608  3.4758371682
F  -1.0755622292 -0.5694356296  4.7483410191
C  -3.1372278106  0.1529284569  5.5792017746
F  -3.2740795096 -0.8612725285  6.4822657494
F  -4.4021333590  0.5347941286  5.2576419960
C  -2.4116334233  1.3165659049  6.2308630462
F  -3.0903690538  1.7551693003  7.3267540913
F  -1.1728311971  0.9862544325  6.6686212565
F  -2.2761358303  2.3864185116  5.4154938053

