%NProcShared=8
%Mem=48GB
%Chk=opt.chk
#p PBEPBE/GenECP 5D 7F SCF=(XQC,Tight) Integral=UltraFine NoSymm EmpiricalDispersion=GD3BJ Opt=(Cartesian,CalcFC,Tight,MaxCycles=300)

PC4P-Me_PFHpA_s24_I_c1_p1__unsolvated | opt | def2-SVPD

0 1
C -0.7841233164 2.8737298494 -0.8439571851
C -0.6712185528 3.9387703942 -1.7384645768
C -1.7939732547 4.6941697130 -2.0689652375
C -3.0300220744 4.3834519494 -1.5058560041
C -3.1431196233 3.3191588436 -0.6099707070
C -2.0201713430 2.5556400527 -0.2679310459
C -2.1482135900 1.3888301921 0.6788040255
P -2.6687864032 -0.1918953830 -0.0279502131
C -4.2448361421 0.0134220812 -0.8061047578
C -5.4180289348 -0.0814615319 -0.0454699042
C -6.6704369260 0.0925049694 -0.6363963376
C -6.7653394017 0.3709830793 -1.9971211873
C -5.6078824532 0.4770393300 -2.7640296046
C -4.3560371940 0.3002291509 -2.1712078441
C -2.7237829889 -1.4742789540 1.1929317909
C -3.1475567141 -2.7565997226 0.8163720926
C -3.1935353726 -3.7969130491 1.7448169521
C -2.8139385245 -3.5677581373 3.0643460411
C -2.3908392155 -2.2989075832 3.4528771355
C -2.3464946948 -1.2582635283 2.5223543835
C -1.3883614234 -0.6199694475 -1.2354496608
C -0.0481204168 -1.0076633818 -0.6143409120
C 1.0506604717 -1.1178077338 -1.6642781877
C 2.3345059540 -1.7579032725 -1.1446337264
P 3.2071836389 -0.9722355033 0.2280074143
C 2.4021716287 -1.5985318229 1.7055718631
C 4.8816893291 -1.5557172046 0.2768131815
C 5.9262161863 -0.7131999497 0.6771518236
C 7.2417179179 -1.1785309308 0.7273112577
C 7.5288308069 -2.4970602200 0.3846366340
C 6.4995235557 -3.3503355638 -0.0038765528
C 5.1847439048 -2.8827050850 -0.0537519435
C 3.1222968586 0.7843405533 0.1058260347
C 2.6529605068 1.5752172251 1.1601932516
C 2.6161338214 2.9666025524 1.0463787567
C 3.0505727745 3.5838436272 -0.1241690195
C 3.5243462579 2.8099871161 -1.1800592932
C 3.5620754227 1.4199709018 -1.0631214361
H 0.1022419543 2.2906103660 -0.6051887735
H 0.2944042823 4.1743178745 -2.1777659408
H -1.7068831295 5.5220909134 -2.7670252132
H -3.9093447401 4.9663277872 -1.7664942795
H -4.1179453597 3.0831504612 -0.1878271186
H -2.8636593973 1.6611102366 1.4652243631
H -1.1905106613 1.2509528146 1.1943344770
H -5.3604045095 -0.2955452828 1.0195026544
H -7.5704226862 0.0107125637 -0.0329469833
H -7.7392006011 0.5083689142 -2.4587441417
H -5.6768924973 0.7028283612 -3.8248290530
H -3.4663292503 0.4056835150 -2.7858318547
H -3.4493940516 -2.9460760898 -0.2117619799
H -3.5269069089 -4.7842861223 1.4368554476
H -2.8491106301 -4.3763513297 3.7893456061
H -2.0949053400 -2.1180581128 4.4830086045
H -2.0121780825 -0.2798135923 2.8533527896
H -1.7550713377 -1.4605110351 -1.8364258972
H -1.2515125123 0.2209414003 -1.9223304239
H -0.1585708028 -1.9609390174 -0.0861038466
H 0.2315992493 -0.2574938361 0.1292127581
H 1.2672275660 -0.1213937115 -2.0644884724
H 0.6890282514 -1.7199384478 -2.5071421064
H 2.1289761222 -2.7993209776 -0.8708761583
H 3.0368013336 -1.7949806934 -1.9865786152
H 2.9511638645 -1.2824168836 2.5977491267
H 1.3750026250 -1.2421453132 1.8006889094
H 2.3811853004 -2.6922641566 1.6933793229
H 5.7231245298 0.3179435032 0.9565472710
H 8.0405995393 -0.5098069551 1.0365195831
H 8.5522099731 -2.8597334153 0.4244574680
H 6.7187132052 -4.3819999635 -0.2658420321
H 4.3949347473 -3.5678492361 -0.3496426455
H 2.3161929749 1.1172286268 2.0858212500
H 2.2470918141 3.5691742197 1.8724351752
H 3.0207832793 4.6665991242 -0.2114742945
H 3.8704248747 3.2870567684 -2.0930491412
H 3.9467265360 0.8256731457 -1.8892849928
I -4.5377020604 0.4858823948 3.4430397826
O 5.0497497776 -0.8909855033 2.9039835843
C 5.7659809684 -0.8594024936 3.9441728934
O 6.3089893541 0.1543636041 4.4803833647
C 5.9938999600 -2.1777997645 4.6903786356
F 5.6834344904 -3.2504701246 3.8999312915
F 7.3156442840 -2.3252541247 5.0012700351
C 5.1468389937 -2.1735975821 5.9363631900
F 5.3534565521 -3.3775154940 6.5833342172
F 3.8147021017 -2.2124407161 5.6053079903
C 5.3495865396 -1.0657195787 6.9676596222
F 4.5223197705 -1.3597094812 8.0353335017
F 4.8826457189 0.1264627973 6.5320927429
C 6.7617652311 -0.9528153005 7.5190782292
F 7.6683684611 -0.5520817275 6.5984356688
F 7.1822107332 -2.2042278475 7.9038796349
C 6.8718190871 -0.0557098152 8.7349309737
F 6.1344848247 -0.5590220751 9.7730760518
F 8.1721487923 -0.1047406609 9.1878494552
C 6.4980322270 1.3941910534 8.4947864632
F 7.1779579070 1.9574088881 7.4764660757
F 6.7838138111 2.1380868764 9.6026944887
F 5.1779870628 1.5728606029 8.2759516765

H     0
S    3   1.00
     13.0107010              0.19682158D-01
      1.9622572              0.13796524
      0.44453796             0.47831935
S    1   1.00
      0.12194962             1.0000000
P    1   1.00
      0.8000000              1.0000000
P    1   1.00
      0.11704099050          1.0000000
****
C     0
S    5   1.00
   1238.4016938              0.54568832082D-02
    186.29004992             0.40638409211D-01
     42.251176346            0.18025593888
     11.676557932            0.46315121755
      3.5930506482           0.44087173314
S    1   1.00
      0.40245147363          1.0000000
S    1   1.00
      0.13090182668          1.0000000
S    1   1.00
      0.67053540256D-01      1.0000000
P    3   1.00
      9.4680970621           0.38387871728D-01
      2.0103545142           0.21117025112
      0.54771004707          0.51328172114
P    1   1.00
      0.15268613795          1.0000000
D    1   1.00
      0.8000000              1.0000000
D    1   1.00
      0.11713185140          1.0000000
****
O     0
S    5   1.00
   2266.1767785             -0.53431809926D-02
    340.87010191            -0.39890039230D-01
     77.363135167           -0.17853911985
     21.479644940           -0.46427684959
      6.6589433124          -0.44309745172
S    1   1.00
      0.80975975668          1.0000000
S    1   1.00
      0.25530772234          1.0000000
S    1   1.00
      0.76572453250D-01      1.0000000
P    3   1.00
     17.721504317            0.43394573193D-01
      3.8635505440           0.23094120765
      1.0480920883           0.51375311064
P    1   1.00
      0.27641544411          1.0000000
P    1   1.00
      0.69002276350D-01      1.0000000
D    1   1.00
      1.2000000              1.0000000
D    1   1.00
      0.17992024323          1.0000000
****
F     0
S    5   1.00
   2894.8325990             -0.53408255515D-02
    435.41939120            -0.39904258866D-01
     98.843328866           -0.17912768038
     27.485198001           -0.46758090825
      8.5405498171          -0.44653131020
S    1   1.00
      1.0654578038           1.0000000
S    1   1.00
      0.33247346748          1.0000000
S    1   1.00
      0.98097752264D-01      1.0000000
P    3   1.00
     22.696633924           -0.45212874436D-01
      4.9872339257          -0.23754317067
      1.3491613954          -0.51287353587
P    1   1.00
      0.34829881977          1.0000000
P    1   1.00
      0.83372148304D-01      1.0000000
D    1   1.00
      1.4000000              1.0000000
D    1   1.00
      0.22301361948          1.0000000
****
P     0
S    5   1.00
   8002.4795106              0.57503489302D-02
   1203.6813590              0.43007628959D-01
    273.44227031             0.19363986252
     76.655541517            0.49651693399
     23.516927435            0.44983262479
S    3   1.00
     39.791683439            0.95188129789D-01
      4.2770343323          -0.57649840368
      1.6940256888          -0.54239583865
S    1   1.00
      0.27567674644          1.0000000
S    1   1.00
      0.10495590099          1.0000000
S    1   1.00
      0.64309734755D-01      1.0000000
P    5   1.00
    219.50755823             0.92100565257D-02
     51.274155030            0.65409765745D-01
     15.921595892            0.24033730279
      5.5069913481           0.46318321788
      1.9537719426           0.37392563382
P    1   1.00
      0.47803397932          1.0000000
P    1   1.00
      0.13657952621          1.0000000
D    1   1.00
      0.4500000              1.0000000
D    1   1.00
      0.99587311089D-01      1.0000000
****
I     0
S    2   1.00
     11.720547572           -0.16160234511D-01
      1.7625986449           0.35271525193
S    6   1.00
    445.90489176             0.20037290389D-02
     23.336842412           -0.14989397324
     19.583446104            0.36436474913
      8.5112089186          -0.75538138199
      2.1996161861           0.82816359356
      1.0668970454           0.42161048110
S    1   1.00
      0.28697476318          1.0000000
S    1   1.00
      0.11227609607          1.0000000
S    1   1.00
      0.45123635492D-01      1.0000000
P    1   1.00
      3.0288656771           1.0000000
P    4   1.00
     20.499027254            0.77159335656D-01
     10.558754576           -0.38370372780
      1.5015895485           0.83554174719
      0.64597173095          0.16787259488
P    1   1.00
      0.34506591841          1.0000000
P    1   1.00
      0.11134513813          1.0000000
P    1   1.00
      0.29795507230D-01      1.0000000
D    5   1.00
     51.235354920            0.40345130346D-02
     15.616239482           -0.50768108881D-02
      4.5266002139           0.29151065356
      2.0529808766           0.51145783605
      0.87640281623          0.31232025297
D    1   1.00
      0.30900000000          1.0000000
D    1   1.00
      0.77987255180D-01      1.0000000
****

I     0
I-ECP     3     28
f potential
  4
2     19.45860900           -21.84204000
2     19.34926000           -28.46819100
2      4.82376700            -0.24371300
2      4.88431500            -0.32080400
s-f potential
  7
2     40.01583500            49.99429300
2     17.42974700           281.02531700
2      9.00548400            61.57332600
2     19.45860900            21.84204000
2     19.34926000            28.46819100
2      4.82376700             0.24371300
2      4.88431500             0.32080400
p-f potential
  8
2     15.35546600            67.44284100
2     14.97183300           134.88113700
2      8.96016400            14.67505100
2      8.25909600            29.37566600
2     19.45860900            21.84204000
2     19.34926000            28.46819100
2      4.82376700             0.24371300
2      4.88431500             0.32080400
d-f potential
  10
2     15.06890800            35.43952900
2     14.55532200            53.17605700
2      6.71864700             9.06719500
2      6.45639300            13.20693700
2      1.19177900             0.08933500
2      1.29115700             0.05238000
2     19.45860900            21.84204000
2     19.34926000            28.46819100
2      4.82376700             0.24371300
2      4.88431500             0.32080400

