%NProcShared=8
%Mem=30GB
%Chk=opt.chk
#p PBEPBE/6-31+G(d,p) Opt=(CalcFC,Tight,MaxCycles=250) EmpiricalDispersion=GD3BJ SCF=(XQC,Tight) Integral=UltraFine NoSymm

A400_PFOS_alternate_oxygen__unsolvated | opt

0 1
C  -0.5566950646 -1.3439910110  0.4592976295
N   0.0000000000  0.0000000000  0.0000000000
C  -0.9594641671  1.0996553712  0.4304987401
C   1.3485241254  0.2247909877  0.6679034873
C   0.1420150732 -0.0422755299 -1.5364310404
C   0.6810559772  1.1994261314 -2.2010522821
C  -0.1877259808  2.2128930114 -2.6370155881
C   0.3139375804  3.3661586663 -3.2424136725
C   1.6859302837  3.5180772901 -3.4257345329
C   2.5587425457  2.5152445016 -3.0115164457
C   2.0609560473  1.3605097366 -2.4057193018
H   0.1424293286 -2.1301424508  0.1588556904
H  -0.6614552734 -1.3248548526  1.5483212912
H  -1.5317440727 -1.4955319577 -0.0133445064
H  -0.5187469867  2.0723055426  0.1973944615
H  -1.9064488236  0.9618991836 -0.0994134768
H  -1.1149952178  1.0177810668  1.5108153356
H   1.2161652754  0.1341287521  1.7506033912
H   2.0463507845 -0.5364429500  0.3071754486
H   1.7059899172  1.2289998720  0.4262394257
H   0.7881721381 -0.8983901726 -1.7707046177
H  -0.8519639239 -0.2766833010 -1.9394119370
H  -1.2658178352  2.1163836549 -2.5238209405
H  -0.3644110007  4.1464237169 -3.5824130181
H   2.0750360572  4.4147647772 -3.9041382234
H   3.6288412348  2.6327438993 -3.1716727930
H   2.7673178724  0.5875890280 -2.1089783858
O  -4.2205976581 -2.0868366447  0.2281938783
S  -4.1521004687 -0.8308158817  0.9720867081
O  -2.8199056720 -0.2250000000  0.9987527227
O  -5.2177608864  0.1138633327  0.6318863328
C  -4.5006511133 -1.2813078679  2.6918437173
F  -4.6582034980 -0.1795271618  3.5018100565
F  -3.4573692449 -1.9714265944  3.2756334347
C  -5.7451811100 -2.1383746038  2.7845552502
F  -5.9780705069 -2.3637518613  4.1345417224
F  -5.5024632691 -3.4006758188  2.3038276166
C  -7.0565052361 -1.6358646783  2.1950959731
F  -7.0459555081 -1.6103713780  0.8440595694
F  -8.0085452512 -2.5948150773  2.4928869747
C  -7.5533471166 -0.3223293306  2.7851312145
F  -6.6508422667  0.6713241929  2.6574728628
F  -7.7323494454 -0.4706472715  4.1313565611
C  -8.8681976240  0.1061191151  2.1558745599
F  -8.7085025225  0.3963027244  0.8365860518
F  -9.7583257520 -0.9367263808  2.1876088901
C  -9.5437443130  1.2804345243  2.8486051145
F  -9.9074985478  0.9238929740  4.1161592838
F  -10.7306619221  1.5129521346  2.2005179701
C  -8.7433732965  2.5597525225  2.8926932368
F  -7.6737840071  2.4250956262  3.7237562844
F  -8.2496615088  2.8654083729  1.6642741064
C  -9.6217727743  3.6910797434  3.3951548695
F  -8.9261647886  4.8537576291  3.4897433650
F  -10.1268898336  3.4451316506  4.6280569466
F  -10.6734200416  3.9424567137  2.5799096641

