%NProcShared=8
%Mem=48GB
%Chk=opt.chk
#p PBEPBE/Gen 5D 7F SCF=(XQC,Tight) Integral=UltraFine NoSymm EmpiricalDispersion=GD3BJ SCRF=(SMD,Solvent=Water) Opt=(Cartesian,CalcFC,Tight,MaxCycles=300)

PPh3_Cl_c1_p1__water | opt | def2-SVPD

0 1
C -1.5146846128 -0.6861033522 2.9122597641
C -2.5625372795 -1.0626681695 3.7562583724
C -3.8046655538 -1.3982930801 3.2238181975
C -4.0014480817 -1.3541474397 1.8468434248
C -2.9544261602 -0.9773179082 1.0046270625
C -1.6936927304 -0.6442566078 1.5240390618
P -0.3817365814 -0.1536796941 0.4049787801
C 1.2222852081 -0.3749092171 1.2499254452
C 2.4835168777 -0.0266532232 0.4981907827
C 3.0362632646 -0.9152418157 -0.4312964828
C 4.1927546772 -0.5760314358 -1.1360921196
C 4.8097531979 0.6537049414 -0.9177093247
C 4.2707016211 1.5456883560 0.0060818667
C 3.1142246469 1.2076973759 0.7106760993
C -0.5441050952 1.5696600930 -0.0247244169
C 0.2914309814 2.1444566306 -0.9938427225
C 0.1866433810 3.4956187682 -1.3291213811
C -0.7587702608 4.2973566083 -0.6975174055
C -1.5957068408 3.7465376195 0.2687437433
C -1.4871031762 2.3942367787 0.6031906729
C -0.4489215233 -1.2489182806 -1.0038970445
C -0.8107771598 -0.8053118517 -2.2811324358
C -0.8722290110 -1.6942920406 -3.3568259078
C -0.5881463451 -3.0439553012 -3.1663120524
C -0.2525134380 -3.5071937150 -1.8976574537
C -0.1904944216 -2.6168242927 -0.8245508801
H -0.5628713104 -0.4200430064 3.3606810321
H -2.4085112006 -1.0913325807 4.8319518934
H -4.6188086910 -1.6910987546 3.8811737521
H -4.9694944357 -1.6117458950 1.4254104420
H -3.1273134830 -0.9418810141 -0.0690788466
H 1.2962457155 -1.4142624150 1.5924498211
H 1.1969311391 0.2329191841 2.1622943234
H 2.5738257464 -1.8807111122 -0.6181336354
H 4.6104085580 -1.2735444735 -1.8574110912
H 5.7091765947 0.9165493547 -1.4677168784
H 4.7473228114 2.5073231047 0.1764250810
H 2.6999828114 1.9224322306 1.4190381642
H 1.0382781095 1.5353842607 -1.4999393583
H 0.8457735740 3.9184204685 -2.0826091939
H -0.8429110704 5.3490314965 -0.9567303233
H -2.3355399119 4.3684436667 0.7659461711
H -2.1526616649 1.9949524564 1.3642042488
H -1.0633212665 0.2369877365 -2.4543194416
H -1.1498294104 -1.3309712387 -4.3428987375
H -0.6396593946 -3.7347892020 -4.0033430812
H -0.0461321582 -4.5624706667 -1.7404157161
H 0.0534933531 -2.9987533469 0.1640677286
Cl -0.3890059779 2.0803203059 3.2279543655

H     0
S    3   1.00
     13.0107010              0.19682158D-01
      1.9622572              0.13796524
      0.44453796             0.47831935
S    1   1.00
      0.12194962             1.0000000
P    1   1.00
      0.8000000              1.0000000
P    1   1.00
      0.11704099050          1.0000000
****
C     0
S    5   1.00
   1238.4016938              0.54568832082D-02
    186.29004992             0.40638409211D-01
     42.251176346            0.18025593888
     11.676557932            0.46315121755
      3.5930506482           0.44087173314
S    1   1.00
      0.40245147363          1.0000000
S    1   1.00
      0.13090182668          1.0000000
S    1   1.00
      0.67053540256D-01      1.0000000
P    3   1.00
      9.4680970621           0.38387871728D-01
      2.0103545142           0.21117025112
      0.54771004707          0.51328172114
P    1   1.00
      0.15268613795          1.0000000
D    1   1.00
      0.8000000              1.0000000
D    1   1.00
      0.11713185140          1.0000000
****
P     0
S    5   1.00
   8002.4795106              0.57503489302D-02
   1203.6813590              0.43007628959D-01
    273.44227031             0.19363986252
     76.655541517            0.49651693399
     23.516927435            0.44983262479
S    3   1.00
     39.791683439            0.95188129789D-01
      4.2770343323          -0.57649840368
      1.6940256888          -0.54239583865
S    1   1.00
      0.27567674644          1.0000000
S    1   1.00
      0.10495590099          1.0000000
S    1   1.00
      0.64309734755D-01      1.0000000
P    5   1.00
    219.50755823             0.92100565257D-02
     51.274155030            0.65409765745D-01
     15.921595892            0.24033730279
      5.5069913481           0.46318321788
      1.9537719426           0.37392563382
P    1   1.00
      0.47803397932          1.0000000
P    1   1.00
      0.13657952621          1.0000000
D    1   1.00
      0.4500000              1.0000000
D    1   1.00
      0.99587311089D-01      1.0000000
****
Cl     0
S    5   1.00
  10449.8275660              0.19708362484D-02
   1571.7365221              0.14754727977D-01
    357.12065523             0.66679112875D-01
    100.25185935             0.17228924084
     30.812727554            0.15883786100
S    3   1.00
     51.923789434           -0.10009298909
      5.7045760975           0.60841752753
      2.3508376809           0.54352153355
S    1   1.00
      0.44605124672          1.0000000
S    1   1.00
      0.16848856190          1.0000000
S    1   1.00
      0.55344229413D-01      1.0000000
P    5   1.00
    307.66790569            -0.87801484118D-02
     72.102015515           -0.63563355471D-01
     22.532680262           -0.24016428276
      7.8991765444          -0.47798866557
      2.8767268321          -0.38515850005
P    1   1.00
      0.77459363955          1.0000000
P    1   1.00
      0.21037699698          1.0000000
P    1   1.00
      0.50046271086D-01      1.0000000
D    1   1.00
      0.6500000              1.0000000
D    1   1.00
      0.12284803390          1.0000000
****

