%NProcShared=8
%Mem=48GB
%Chk=opt.chk
#p PBEPBE/6-31+G(d,p) Opt=(CalcFC,Tight,MaxCycles=250) EmpiricalDispersion=GD3BJ SCF=(XQC,Tight) Integral=UltraFine NoSymm

PPh3_PFOS_head_tangential__unsolvated | opt

0 1
C   1.0136891681  2.0290606411 -1.6458589778
C   1.6345273710  3.2595048474 -1.8754101304
C   2.0507924733  4.0447590825 -0.8034398093
C   1.8433205795  3.6020887081  0.4995284302
C   1.2225686149  2.3732264292  0.7278808871
C   0.8046401467  1.5653606736 -0.3411623875
P   0.0000000000  0.0000000000  0.0000000000
C   0.1271061238 -1.0593849129 -1.4823333788
C  -0.4806842282 -2.4396655583 -1.4322838187
C   0.1929520525 -3.5010712737 -0.8169006310
C  -0.3860253507 -4.7701858308 -0.7585664417
C  -1.6431151656 -4.9919864729 -1.3163857996
C  -2.3226300863 -3.9445229027 -1.9333787983
C  -1.7448793931 -2.6752952127 -1.9916176357
C  -1.7307078987  0.2542255214  0.3477452914
C  -2.5361091316 -0.8119527469  0.7747057841
C  -3.8957265397 -0.6315807580  1.0353537846
C  -4.4745108801  0.6229251242  0.8718299795
C  -3.6928681625  1.6933034197  0.4465676157
C  -2.3327398718  1.5090157925  0.1849277744
C   0.8903892163 -0.7730224337  1.3411313890
C   0.3255438652 -0.9552051004  2.6087334030
C   1.0584933765 -1.5458903848  3.6407483667
C   2.3736399856 -1.9481549598  3.4235843607
C   2.9599561543 -1.7504313622  2.1770438235
C   2.2252140813 -1.1611612158  1.1469591346
H   0.6915582244  1.4471942588 -2.5034601607
H   1.7908521420  3.6060917953 -2.8937915835
H   2.5336110694  5.0014485198 -0.9831885883
H   2.1629507960  4.2118474121  1.3404270283
H   1.0622930886  2.0452319028  1.7529274841
H  -0.3410188414 -0.5166405741 -2.3122728593
H   1.1854592476 -1.1540740058 -1.7543053805
H   1.1749497843 -3.3530898446 -0.3756872470
H   0.1459864965 -5.5854136993 -0.2752149625
H  -2.0927077116 -5.9800174793 -1.2693030121
H  -3.3049615313 -4.1130375035 -2.3664542200
H  -2.2960292337 -1.8658416831 -2.4662108290
H  -2.1037075062 -1.8018848661  0.9086798780
H  -4.4994811064 -1.4731253306  1.3643511049
H  -5.5321940452  0.7663642303  1.0743694554
H  -4.1399959644  2.6753700897  0.3163575415
H  -1.7502211353  2.3637658200 -0.1491543134
H  -0.6894180111 -0.6273453618  2.8149359701
H   0.6017207950 -1.6843706206  4.6172661444
H   2.9435567017 -2.4043936398  4.2282996073
H   3.9914101630 -2.0474537816  2.0073177340
H   2.7049408238 -0.9954500765  0.1851025421
O  -2.2716149564  0.2979166667 -2.3051054530
S  -2.7584460708  1.5155686652 -2.9500671891
O  -3.9459440109  2.0919629750 -2.3175443223
O  -1.7072105906  2.4969973224 -3.2248197964
C  -3.3069556135  0.9912629075 -4.5951311715
F  -3.6257713423  2.0563873269 -5.4067070774
F  -4.4724315141  0.2529600759 -4.5494562109
C  -2.2448201327  0.1564916927 -5.2785336665
F  -2.7158524299 -0.1278356620 -6.5532031863
F  -2.1588984527 -1.0863032903 -4.7027789787
C  -0.8375220141  0.7132077063 -5.4492050285
F  -0.1658973655  0.8025321996 -4.2800164058
F  -0.1268506285 -0.2390424489 -6.1582969565
C  -0.7616034967  2.0072003361 -6.2493225217
F  -1.5168618952  2.9870544221 -5.7130113197
F  -1.2804187180  1.7989015207 -7.4958397091
C   0.6719066465  2.4919138933 -6.3852096134
F   1.1878627490  2.8410074566 -5.1760139285
F   1.4669502200  1.4672293413 -6.8310673994
C   0.8559070422  3.6456700710 -7.3600153211
F   0.5447897283  3.2369499917 -8.6258298835
F   2.1967692118  3.9329816200 -7.4089592920
C   0.0901409218  4.9047572279 -7.0321527778
F  -1.2459630715  4.7089052631 -7.2032891088
F   0.2715653307  5.2581356263 -5.7327685854
C   0.5468753553  6.0287715636 -7.9442602529
F  -0.1491724726  7.1711297406 -7.7093719056
F   0.3705343063  5.7350426176 -9.2551028752
F   1.8546587997  6.3400690327 -7.7812466059

