%NProcShared=8
%Mem=30GB
%Chk=opt.chk
#p PBEPBE/6-31+G(d,p) Opt=(CalcFC,Tight,MaxCycles=250) EmpiricalDispersion=GD3BJ SCF=(XQC,Tight) Integral=UltraFine NoSymm SCRF=(SMD,Solvent=Water)

free_PFPeA__water | opt

-1 1
O   2.7847665986 -1.4846469550 -0.5362590430
C   1.5642391742 -1.2167970588 -0.7212339018
O   0.9896177366 -0.9267531715 -1.8136547183
C   0.6485688629 -1.1959450845  0.5051352612
F  -0.5199594874 -1.8526667436  0.2416942739
F   1.2148507299 -1.8691462400  1.5529703408
C   0.3779017858  0.2363511899  0.8792141323
F   1.5284579669  0.8341825425  1.3318176620
F  -0.4368983249  0.2186800553  1.9974320240
C  -0.2749451413  1.1569958665 -0.1363480678
F  -0.5011473220  2.3662215914  0.5077804396
F   0.5569487740  1.5002640818 -1.1531122289
C  -1.6218509952  0.6581997104 -0.6357600131
F  -2.2263491565  1.6077870830 -1.4076052030
F  -2.4792944441  0.4324071714  0.3965851550
F  -1.6049067607 -0.4651340517 -1.3725071938

