%NProcShared=8
%Mem=30GB
%Chk=opt.chk
#p PBEPBE/6-31+G(d,p) Opt=(CalcFC,Tight,MaxCycles=250) EmpiricalDispersion=GD3BJ SCF=(XQC,Tight) Integral=UltraFine NoSymm SCRF=(SMD,Solvent=Water)

A400_PFOA_alternate_oxygen__water | opt

0 1
C  -0.5566950646 -1.3439910110  0.4592976295
N   0.0000000000  0.0000000000  0.0000000000
C  -0.9594641671  1.0996553712  0.4304987401
C   1.3485241254  0.2247909877  0.6679034873
C   0.1420150732 -0.0422755299 -1.5364310404
C   0.6810559772  1.1994261314 -2.2010522821
C  -0.1877259808  2.2128930114 -2.6370155881
C   0.3139375804  3.3661586663 -3.2424136725
C   1.6859302837  3.5180772901 -3.4257345329
C   2.5587425457  2.5152445016 -3.0115164457
C   2.0609560473  1.3605097366 -2.4057193018
H   0.1424293286 -2.1301424508  0.1588556904
H  -0.6614552734 -1.3248548526  1.5483212912
H  -1.5317440727 -1.4955319577 -0.0133445064
H  -0.5187469867  2.0723055426  0.1973944615
H  -1.9064488236  0.9618991836 -0.0994134768
H  -1.1149952178  1.0177810668  1.5108153356
H   1.2161652754  0.1341287521  1.7506033912
H   2.0463507845 -0.5364429500  0.3071754486
H   1.7059899172  1.2289998720  0.4262394257
H   0.7881721381 -0.8983901726 -1.7707046177
H  -0.8519639239 -0.2766833010 -1.9394119370
H  -1.2658178352  2.1163836549 -2.5238209405
H  -0.3644110007  4.1464237169 -3.5824130181
H   2.0750360572  4.4147647772 -3.9041382234
H   3.6288412348  2.6327438993 -3.1716727930
H   2.7673178724  0.5875890280 -2.1089783858
F  -0.9442746418 -0.3415786823  4.9514970009
F   0.8717389401  0.5664583945  4.2327539819
F  -1.5492908213  1.7414549254  3.3943143973
F  -2.1059114276  2.0286341977  5.4468491280
F   1.0689795076 -0.3418861679  6.7080469318
F   1.2932033891  1.8059991984  6.6165779451
F  -1.3028872544  4.3083928192  4.3688409971
F  -0.0412380855  3.6234568119  5.9780086590
F   0.0741537438  0.9698627296  8.8214391493
F  -1.2696702029  2.1534724134  7.6069580314
F   1.8859057543  2.7451095501  4.2326324145
F   1.3832456602  4.8532762748  4.0414915688
F  -1.0477036963 -1.3974419161  7.7710212438
F  -2.4911048894 -0.2004692731  6.6628836315
F  -2.4157236757 -0.0767750880  8.8226860664
O   0.1433233264  4.3902351864  1.7147871166
O   0.6388379132  2.1850000000  1.9538835996
C  -0.1750802098  0.7901748819  5.0703332197
C  -1.0033860553  1.9893456163  4.6157553001
C   0.3573577272  0.8172902985  6.4994263150
C  -0.3501597917  3.3676512852  4.6594057212
C  -0.6345620067  0.9514320903  7.6413471269
C   0.8913804494  3.5931525824  3.8388412305
C  -1.6410651398 -0.1834763095  7.7102177764
C   0.5391406217  3.3801780292  2.3630720219

