%NProcShared=8
%Mem=48GB
%Chk=opt.chk
#p PBEPBE/Gen 5D 7F SCF=(XQC,Tight) Integral=UltraFine NoSymm EmpiricalDispersion=GD3BJ Opt=(Cartesian,CalcFC,Tight,MaxCycles=300)

PC4P_PFOS_s7_c3_p3__unsolvated | opt | def2-SVPD

0 1
C -5.2212249567 2.0868019210 -0.9451807950
C -6.5186436609 2.4559061381 -0.5869496225
C -6.8326525624 2.6901894237 0.7493847936
C -5.8496473776 2.5534408416 1.7269501936
C -4.5515823518 2.1831905573 1.3693215916
C -4.2228016778 1.9485477734 0.0292965460
C -2.8319278421 1.5218838501 -0.3685820178
P -2.4649930948 -0.2503400984 -0.3641555822
C -3.6985624362 -1.0957867002 -1.3201824324
C -4.9516474963 -1.3641863842 -0.7500166068
C -5.9479014986 -2.0180667439 -1.4759553281
C -5.7047386674 -2.4147525815 -2.7872917338
C -4.4671344883 -2.1540970551 -3.3698294943
C -3.4719208914 -1.4974870564 -2.6412582476
C -2.2735135384 -0.9343654565 1.2561164316
C -2.4678305531 -2.3067662770 1.4649276757
C -2.3012682770 -2.8732580469 2.7300057905
C -1.9237767360 -2.0752397309 3.8056742896
C -1.7065622839 -0.7140523980 3.6123812907
C -1.8752202950 -0.1508277214 2.3452808419
C -0.8552533276 -0.3430371991 -1.2025203698
C 0.3143086605 0.2694005517 -0.4381658138
C 1.6145990987 0.1815448749 -1.2394981749
C 2.7825497697 0.7896521653 -0.4580067626
P 4.3772614634 0.6494783344 -1.3746207569
C 5.4380676494 1.7405866624 -0.3641048342
C 5.9995022743 2.8778076864 -0.9634592404
C 6.8105316413 3.7465324281 -0.2285375737
C 7.0700204879 3.4895879759 1.1153846062
C 6.5192418923 2.3648904028 1.7248091378
C 5.7073808060 1.4965460465 0.9903400014
C 5.0592609004 -0.9908803828 -0.9442086804
C 6.3869861496 -1.2732036653 -1.3147665514
C 6.9747985620 -2.5084753129 -1.0280006082
C 6.2423507004 -3.4905209896 -0.3701406129
C 4.9243702691 -3.2362869791 -0.0030143693
C 4.3377269041 -1.9984476493 -0.2904003085
H -4.9977890628 1.8913396351 -1.9920571154
H -7.2843088698 2.5533040512 -1.3518288933
H -7.8430318554 2.9753475579 1.0291116664
H -6.0936485992 2.7321665298 2.7708006078
H -3.8036924448 2.0813637708 2.1500125307
H -2.6402784980 1.8907290825 -1.3847358084
H -2.1066646415 2.0508812201 0.2596444794
H -5.1600086437 -1.0510236478 0.2717255591
H -6.9128803069 -2.2120180382 -1.0156585565
H -6.4788046104 -2.9237029450 -3.3548327099
H -4.2749254425 -2.4610968762 -4.3946034971
H -2.5191148292 -1.3057603565 -3.1248766780
H -2.7532917874 -2.9494594755 0.6346957483
H -2.4653427316 -3.9381134693 2.8720340829
H -1.7934190360 -2.5144932365 4.7908116268
H -1.4005270135 -0.0895418193 4.4475527871
H -1.6763884655 0.9087271616 2.2180896152
H -0.9492265442 0.1545944512 -2.1743104911
H -0.6411995841 -1.4007691577 -1.3955589091
H 0.0950399190 1.3161806919 -0.2025071545
H 0.4417603736 -0.2521351310 0.5163662519
H 1.4900547035 0.7112036512 -2.1930574540
H 1.8139067585 -0.8670605171 -1.4895362945
H 2.5712478073 1.8562054771 -0.3102701714
H 2.8548370613 0.3497150114 0.5423603204
H 5.8114632399 3.0987005494 -2.0121747927
H 7.2394269733 4.6225898901 -0.7077791006
H 7.7023473993 4.1638824462 1.6867253802
H 6.7225909655 2.1590414417 2.7723953673
H 5.2946613040 0.6229145228 1.4896308690
H 6.9845759654 -0.5239769111 -1.8317880556
H 8.0037882711 -2.6988165757 -1.3209531357
H 6.6960119152 -4.4521928564 -0.1467017453
H 4.3461561619 -4.0025264400 0.5072321205
H 3.3065209317 -1.8521088939 0.0135531687
O -4.3825558316 1.3252285065 -4.8335419074
S -2.9412934625 1.0826267890 -4.7310453983
O -2.4504053468 1.0225765682 -3.3544683347
O -2.4629130322 -0.0017565534 -5.5854112515
C -2.2114752229 2.5694413466 -5.4367134823
F -2.5398252925 3.6939936437 -4.7075536400
F -0.8324512759 2.5407837674 -5.4078274064
C -2.6573899634 2.7856626991 -6.8715791281
F -2.1224289706 1.8933059892 -7.7476858158
F -2.0586161832 3.9893137342 -7.2477208600
C -4.1536417010 2.9689695159 -7.1102911204
F -4.7598836323 3.5256014524 -6.0402614050
F -4.2871497947 3.9589891656 -8.0788711751
C -4.8752445271 1.7620399974 -7.7111543050
F -4.3930020775 1.6358089908 -9.0035318896
F -4.5906927053 0.5729678728 -7.1510635310
C -6.3836080585 1.9360721120 -7.8249606615
F -6.6731177576 3.1332473934 -8.4129319589
F -6.8420581231 0.9934698741 -8.7167248619
C -7.1759609752 1.7771231303 -6.5364386182
F -6.8342197356 2.7208842597 -5.6279834456
F -6.9298015249 0.5668982114 -5.9744468470
C -8.6586093721 1.8940604371 -6.8143232040
F -9.0697368662 0.9565528444 -7.7171240991
F -8.9505917657 3.1019666249 -7.3822636186
C -9.4429511485 1.7354332861 -5.5258030749
F -10.7796198147 1.8437896909 -5.7645231010
F -9.1476722601 2.6843125707 -4.6081268658
F -9.2615137315 0.5303479838 -4.9403286821

H     0
S    3   1.00
     13.0107010              0.19682158D-01
      1.9622572              0.13796524
      0.44453796             0.47831935
S    1   1.00
      0.12194962             1.0000000
P    1   1.00
      0.8000000              1.0000000
P    1   1.00
      0.11704099050          1.0000000
****
C     0
S    5   1.00
   1238.4016938              0.54568832082D-02
    186.29004992             0.40638409211D-01
     42.251176346            0.18025593888
     11.676557932            0.46315121755
      3.5930506482           0.44087173314
S    1   1.00
      0.40245147363          1.0000000
S    1   1.00
      0.13090182668          1.0000000
S    1   1.00
      0.67053540256D-01      1.0000000
P    3   1.00
      9.4680970621           0.38387871728D-01
      2.0103545142           0.21117025112
      0.54771004707          0.51328172114
P    1   1.00
      0.15268613795          1.0000000
D    1   1.00
      0.8000000              1.0000000
D    1   1.00
      0.11713185140          1.0000000
****
O     0
S    5   1.00
   2266.1767785             -0.53431809926D-02
    340.87010191            -0.39890039230D-01
     77.363135167           -0.17853911985
     21.479644940           -0.46427684959
      6.6589433124          -0.44309745172
S    1   1.00
      0.80975975668          1.0000000
S    1   1.00
      0.25530772234          1.0000000
S    1   1.00
      0.76572453250D-01      1.0000000
P    3   1.00
     17.721504317            0.43394573193D-01
      3.8635505440           0.23094120765
      1.0480920883           0.51375311064
P    1   1.00
      0.27641544411          1.0000000
P    1   1.00
      0.69002276350D-01      1.0000000
D    1   1.00
      1.2000000              1.0000000
D    1   1.00
      0.17992024323          1.0000000
****
F     0
S    5   1.00
   2894.8325990             -0.53408255515D-02
    435.41939120            -0.39904258866D-01
     98.843328866           -0.17912768038
     27.485198001           -0.46758090825
      8.5405498171          -0.44653131020
S    1   1.00
      1.0654578038           1.0000000
S    1   1.00
      0.33247346748          1.0000000
S    1   1.00
      0.98097752264D-01      1.0000000
P    3   1.00
     22.696633924           -0.45212874436D-01
      4.9872339257          -0.23754317067
      1.3491613954          -0.51287353587
P    1   1.00
      0.34829881977          1.0000000
P    1   1.00
      0.83372148304D-01      1.0000000
D    1   1.00
      1.4000000              1.0000000
D    1   1.00
      0.22301361948          1.0000000
****
P     0
S    5   1.00
   8002.4795106              0.57503489302D-02
   1203.6813590              0.43007628959D-01
    273.44227031             0.19363986252
     76.655541517            0.49651693399
     23.516927435            0.44983262479
S    3   1.00
     39.791683439            0.95188129789D-01
      4.2770343323          -0.57649840368
      1.6940256888          -0.54239583865
S    1   1.00
      0.27567674644          1.0000000
S    1   1.00
      0.10495590099          1.0000000
S    1   1.00
      0.64309734755D-01      1.0000000
P    5   1.00
    219.50755823             0.92100565257D-02
     51.274155030            0.65409765745D-01
     15.921595892            0.24033730279
      5.5069913481           0.46318321788
      1.9537719426           0.37392563382
P    1   1.00
      0.47803397932          1.0000000
P    1   1.00
      0.13657952621          1.0000000
D    1   1.00
      0.4500000              1.0000000
D    1   1.00
      0.99587311089D-01      1.0000000
****
S     0
S    5   1.00
   9184.9303010             -0.22294387756D-02
   1381.5105503             -0.16683029937D-01
    313.87147580            -0.75262436116D-01
     88.053870623           -0.19376827038
     27.039914905           -0.17718020803
S    3   1.00
     45.648731303           -0.10736062573
      4.9664522326           0.65066293018
      2.0116242047           0.59712155354
S    1   1.00
      0.35661077013          1.0000000
S    1   1.00
      0.13507221477          1.0000000
S    1   1.00
      0.44999823506D-01      1.0000000
P    5   1.00
    261.98233439            -0.92729929822D-02
     61.306894736           -0.66547669241D-01
     19.103729887           -0.24828595903
      6.6567720378          -0.48703847402
      2.3959635161          -0.39337850312
P    1   1.00
      0.61776161679          1.0000000
P    1   1.00
      0.16993376871          1.0000000
P    1   1.00
      0.41706793676D-01      1.0000000
D    1   1.00
      0.5500000              1.0000000
D    1   1.00
      0.10172853717          1.0000000
****

