%NProcShared=8
%Mem=30GB
%Chk=opt.chk
#p PBEPBE/6-31+G(d,p) Opt=(CalcFC,Tight,MaxCycles=250) EmpiricalDispersion=GD3BJ SCF=(XQC,Tight) Integral=UltraFine NoSymm

A400_PFPeA_head_axial__unsolvated | opt

0 1
C  -0.5566950646 -1.3439910110  0.4592976295
N   0.0000000000  0.0000000000  0.0000000000
C  -0.9594641671  1.0996553712  0.4304987401
C   1.3485241254  0.2247909877  0.6679034873
C   0.1420150732 -0.0422755299 -1.5364310404
C   0.6810559772  1.1994261314 -2.2010522821
C  -0.1877259808  2.2128930114 -2.6370155881
C   0.3139375804  3.3661586663 -3.2424136725
C   1.6859302837  3.5180772901 -3.4257345329
C   2.5587425457  2.5152445016 -3.0115164457
C   2.0609560473  1.3605097366 -2.4057193018
H   0.1424293286 -2.1301424508  0.1588556904
H  -0.6614552734 -1.3248548526  1.5483212912
H  -1.5317440727 -1.4955319577 -0.0133445064
H  -0.5187469867  2.0723055426  0.1973944615
H  -1.9064488236  0.9618991836 -0.0994134768
H  -1.1149952178  1.0177810668  1.5108153356
H   1.2161652754  0.1341287521  1.7506033912
H   2.0463507845 -0.5364429500  0.3071754486
H   1.7059899172  1.2289998720  0.4262394257
H   0.7881721381 -0.8983901726 -1.7707046177
H  -0.8519639239 -0.2766833010 -1.9394119370
H  -1.2658178352  2.1163836549 -2.5238209405
H  -0.3644110007  4.1464237169 -3.5824130181
H   2.0750360572  4.4147647772 -3.9041382234
H   3.6288412348  2.6327438993 -3.1716727930
H   2.7673178724  0.5875890280 -2.1089783858
O  -2.8199056720 -0.2250000000  0.9987527227
C  -4.0072636174 -0.3197391753  1.4192905417
O  -5.0789933114 -0.2154319872  0.7498027023
C  -4.2127466079 -0.5522861102  2.9181457420
F  -5.1553209142 -1.5185020307  3.1282016127
F  -3.0704947029 -1.0264121072  3.5032084969
C  -4.6344843366  0.7453122799  3.5530032002
F  -3.6034267254  1.6514922778  3.5106969264
F  -4.7954104658  0.5038962461  4.9059421574
C  -5.8983949458  1.4319399581  3.0669633700
F  -6.0988126880  2.5307685761  3.8920113755
F  -5.7591802413  1.9910018102  1.8374272686
C  -7.1428218240  0.5639769262  3.1689790347
F  -8.2592045645  1.2941650240  2.8801986319
F  -7.3265278951  0.1102604700  4.4387512748
F  -7.1847544254 -0.5132971513  2.3673029933

