%NProcShared=8
%Mem=48GB
%Chk=opt.chk
#p PBEPBE/Gen 5D 7F SCF=(XQC,Tight) Integral=UltraFine NoSymm EmpiricalDispersion=GD3BJ Opt=(Cartesian,CalcFC,Tight,MaxCycles=300)

PC4P_PFOA_s7_c2_p2__unsolvated | opt | def2-SVPD

0 1
C -4.7770840625 -1.9435293533 1.2085387720
C -6.1373459284 -2.0997721379 0.9375259268
C -6.9825074497 -0.9935633378 0.9540664554
C -6.4671499455 0.2674366075 1.2443576928
C -5.1055708759 0.4240324343 1.5136558095
C -4.2432563252 -0.6785080242 1.4921360928
C -2.7677185319 -0.5262135190 1.7685432138
P -1.6200780774 -0.4734004267 0.3724896682
C -1.5892369550 1.0603550691 -0.5076449519
C -0.8828039828 1.1354783808 -1.7182616497
C -0.8193509457 2.3252221002 -2.4448080261
C -1.4635730601 3.4627855922 -1.9694676230
C -2.1681914508 3.4066430121 -0.7700123379
C -2.2294043520 2.2130316062 -0.0461362138
C -1.9755969536 -1.8117553423 -0.7474638950
C -3.0132536625 -1.6662739860 -1.6809109131
C -3.3268080201 -2.6902584930 -2.5755282824
C -2.6032701679 -3.8783597244 -2.5522723108
C -1.5688628790 -4.0392185969 -1.6342213482
C -1.2575890897 -3.0128616761 -0.7382887321
C -0.0054933053 -0.7484502471 1.1534708672
C 0.4492845847 0.1744040990 2.2803394416
C 0.8055956280 1.6153769096 1.9124177448
C 1.8075753974 1.8286136063 0.7736995270
P 3.5731004170 1.5867991866 1.2485574550
C 4.5255308373 2.0923219358 -0.2314333318
C 5.9103974505 1.8460187774 -0.2468843514
C 6.6998245552 2.2112110489 -1.3408291707
C 6.1194161432 2.8371724170 -2.4389147041
C 4.7524222242 3.0988523498 -2.4401660878
C 3.9628132993 2.7322885265 -1.3444816364
C 3.7668391885 -0.2259647905 1.1602526789
C 3.5759473530 -0.9555857527 -0.0223303415
C 3.7288044557 -2.3444268188 -0.0396631830
C 4.0798500661 -3.0224771831 1.1247137789
C 4.2820008818 -2.3124245152 2.3054746553
C 4.1292211651 -0.9235090023 2.3223142802
H -4.1313100816 -2.8192396884 1.1838958593
H -6.5335169037 -3.0856506232 0.7097656300
H -8.0412866225 -1.1142678228 0.7424612263
H -7.1261184926 1.1314556112 1.2625510139
H -4.7327960832 1.4162010529 1.7495290479
H -2.4670750910 -1.3681166834 2.4062582268
H -2.6091222590 0.3635711026 2.3890489620
H -0.3754878669 0.2529645457 -2.1037741187
H -0.2710075800 2.3594187356 -3.3823065009
H -1.4189187687 4.3907484817 -2.5328556973
H -2.6703039231 4.2943470683 -0.3940996920
H -2.7669093348 2.2055581699 0.8947655020
H -3.5941343560 -0.7457834475 -1.7057618209
H -4.1378472227 -2.5572234889 -3.2862635995
H -2.8452760730 -4.6771887631 -3.2476459583
H -1.0011950967 -4.9658541700 -1.6140954482
H -0.4439850205 -3.1720631831 -0.0378998588
H 0.7464543104 -0.7937046634 0.3624467502
H -0.0474795587 -1.7527461888 1.5913691062
H 1.3151187216 -0.2843854405 2.7693141590
H -0.3317965420 0.2069856166 3.0485466914
H 1.1648440170 2.1196980201 2.8196504683
H -0.1205829306 2.1352273077 1.6531535044
H 1.5443304537 1.2414228068 -0.1085784063
H 1.7065498450 2.8822228814 0.4858024961
H 6.3913480459 1.3579846076 0.5992641499
H 7.7667824073 2.0054372634 -1.3304348306
H 6.7310604373 3.1229919910 -3.2902422034
H 4.2955447607 3.5920865310 -3.2942660537
H 2.9025818373 2.9605925831 -1.3918077923
H 3.3050909895 -0.4512594029 -0.9472617864
H 3.5766358863 -2.8932393788 -0.9653311167
H 4.2013653931 -4.1022454428 1.1106821851
H 4.5610394790 -2.8372690155 3.2152990331
H 4.2929255977 -0.3901677054 3.2565709395
F -4.5822165529 -7.1126749168 4.5473433377
F -6.5760002320 -6.2946914446 4.7700236160
F -6.2413293385 -6.3036228702 2.3648307975
F -5.8504555898 -4.2584762411 2.8559464927
F -5.4629926472 -3.7722573939 5.3562343354
F -3.5019972780 -4.7370991286 5.4722577413
F -3.9107887053 -7.0904468342 2.0133965917
F -4.2630322426 -5.2810067149 0.8732405613
F -6.5260535410 -5.4862464936 7.1200912650
F -4.7374780585 -4.4805559290 7.8241181934
F -2.3574580583 -5.8276210093 3.8069414125
F -1.7058834068 -5.6677524988 1.7348279944
F -5.1146727590 -7.8091528766 6.6593103058
F -3.2234179584 -6.8143546028 7.0976731346
F -4.7437331662 -7.0251721716 8.6377703730
O -1.6480788392 -3.1004837600 2.2856412871
O -3.6506000571 -3.2463584835 3.3477573166
C -5.2788736462 -5.9463300853 4.4463476592
C -5.2907379812 -5.4850251978 2.9910328085
C -4.8337979982 -4.9725154932 5.5253283363
C -4.0240532099 -5.7109651919 2.1566104757
C -5.1713391043 -5.4349637221 6.9339312990
C -2.6692280232 -5.2438853686 2.6102456188
C -4.5551296331 -6.7667568113 7.3145172964
C -2.6427539147 -3.7247429439 2.7479209672

H     0
S    3   1.00
     13.0107010              0.19682158D-01
      1.9622572              0.13796524
      0.44453796             0.47831935
S    1   1.00
      0.12194962             1.0000000
P    1   1.00
      0.8000000              1.0000000
P    1   1.00
      0.11704099050          1.0000000
****
C     0
S    5   1.00
   1238.4016938              0.54568832082D-02
    186.29004992             0.40638409211D-01
     42.251176346            0.18025593888
     11.676557932            0.46315121755
      3.5930506482           0.44087173314
S    1   1.00
      0.40245147363          1.0000000
S    1   1.00
      0.13090182668          1.0000000
S    1   1.00
      0.67053540256D-01      1.0000000
P    3   1.00
      9.4680970621           0.38387871728D-01
      2.0103545142           0.21117025112
      0.54771004707          0.51328172114
P    1   1.00
      0.15268613795          1.0000000
D    1   1.00
      0.8000000              1.0000000
D    1   1.00
      0.11713185140          1.0000000
****
O     0
S    5   1.00
   2266.1767785             -0.53431809926D-02
    340.87010191            -0.39890039230D-01
     77.363135167           -0.17853911985
     21.479644940           -0.46427684959
      6.6589433124          -0.44309745172
S    1   1.00
      0.80975975668          1.0000000
S    1   1.00
      0.25530772234          1.0000000
S    1   1.00
      0.76572453250D-01      1.0000000
P    3   1.00
     17.721504317            0.43394573193D-01
      3.8635505440           0.23094120765
      1.0480920883           0.51375311064
P    1   1.00
      0.27641544411          1.0000000
P    1   1.00
      0.69002276350D-01      1.0000000
D    1   1.00
      1.2000000              1.0000000
D    1   1.00
      0.17992024323          1.0000000
****
F     0
S    5   1.00
   2894.8325990             -0.53408255515D-02
    435.41939120            -0.39904258866D-01
     98.843328866           -0.17912768038
     27.485198001           -0.46758090825
      8.5405498171          -0.44653131020
S    1   1.00
      1.0654578038           1.0000000
S    1   1.00
      0.33247346748          1.0000000
S    1   1.00
      0.98097752264D-01      1.0000000
P    3   1.00
     22.696633924           -0.45212874436D-01
      4.9872339257          -0.23754317067
      1.3491613954          -0.51287353587
P    1   1.00
      0.34829881977          1.0000000
P    1   1.00
      0.83372148304D-01      1.0000000
D    1   1.00
      1.4000000              1.0000000
D    1   1.00
      0.22301361948          1.0000000
****
P     0
S    5   1.00
   8002.4795106              0.57503489302D-02
   1203.6813590              0.43007628959D-01
    273.44227031             0.19363986252
     76.655541517            0.49651693399
     23.516927435            0.44983262479
S    3   1.00
     39.791683439            0.95188129789D-01
      4.2770343323          -0.57649840368
      1.6940256888          -0.54239583865
S    1   1.00
      0.27567674644          1.0000000
S    1   1.00
      0.10495590099          1.0000000
S    1   1.00
      0.64309734755D-01      1.0000000
P    5   1.00
    219.50755823             0.92100565257D-02
     51.274155030            0.65409765745D-01
     15.921595892            0.24033730279
      5.5069913481           0.46318321788
      1.9537719426           0.37392563382
P    1   1.00
      0.47803397932          1.0000000
P    1   1.00
      0.13657952621          1.0000000
D    1   1.00
      0.4500000              1.0000000
D    1   1.00
      0.99587311089D-01      1.0000000
****

