%NProcShared=8
%Mem=48GB
%Chk=opt.chk
#p PBEPBE/Gen 5D 7F SCF=(XQC,Tight) Integral=UltraFine NoSymm EmpiricalDispersion=GD3BJ Opt=(Cartesian,CalcFC,Tight,MaxCycles=300)

PPh3_PFNA_s6_c2_p2__unsolvated | opt | def2-SVPD

0 1
C 0.1409898942 0.6730762299 2.6628647934
C 0.0337014402 0.2474431781 3.9878132008
C -0.6284751822 -0.9400494452 4.2846448192
C -1.1916906112 -1.6929917380 3.2577805573
C -1.0841675003 -1.2643843767 1.9326715151
C -0.3987219833 -0.0865977727 1.6132363231
P -0.2578313631 0.5127310827 -0.0630530585
C 1.4948864824 0.8909839979 -0.4104188257
C 2.4934111835 -0.2399139198 -0.3770811350
C 3.0058487548 -0.7123340566 0.8367096729
C 3.9146250866 -1.7720113729 0.8586415437
C 4.3220960798 -2.3689828289 -0.3322514585
C 3.8210717206 -1.9066103662 -1.5466582918
C 2.9120402748 -0.8477085187 -1.5695172389
C -1.2054329047 2.0310795643 -0.1672203575
C -2.4596414368 2.1053906840 0.4585674501
C -3.2287577644 3.2678574813 0.3899318790
C -2.7568279507 4.3733871278 -0.3113665573
C -1.5183995719 4.3135246498 -0.9451977984
C -0.7487859973 3.1494980933 -0.8754350426
C -0.8213313214 -0.6561183568 -1.2866386370
C -0.3179654525 -1.9652861086 -1.3068765542
C -0.7377889240 -2.8863902644 -2.2683062153
C -1.6710542641 -2.5114371602 -3.2295276292
C -2.1808038694 -1.2161836027 -3.2280171106
C -1.7572623189 -0.2962188077 -2.2653933217
H 0.6440094319 1.6135746596 2.4502576576
H 0.4605785286 0.8472014072 4.7871823939
H -0.7158654390 -1.2730277580 5.3151857007
H -1.7230768068 -2.6131290037 3.4866480456
H -1.5562132322 -1.8584868854 1.1552563854
H 1.5388016904 1.3479854975 -1.4062801959
H 1.8282975306 1.6711325876 0.2847462290
H 2.7040081042 -0.2622225776 1.7786134893
H 4.3029014675 -2.1316638930 1.8079298763
H 5.0286724297 -3.1941801385 -0.3133837340
H 4.1339816396 -2.3722207578 -2.4773708223
H 2.5212438244 -0.5082357399 -2.5267286899
H -2.8465263051 1.2480372233 1.0056149905
H -4.1959479341 3.3071932123 0.8839791060
H -3.3544237874 5.2792292623 -0.3662144352
H -1.1505226271 5.1741913175 -1.4979898328
H 0.2065948522 3.1325656661 -1.3900034726
H 0.4133356532 -2.2794649846 -0.5643268648
H -0.3327845969 -3.8948136107 -2.2641497540
H -1.9999562418 -3.2262460352 -3.9786359502
H -2.9095114896 -0.9176036868 -3.9771290680
H -2.1713291927 0.7084308447 -2.2931035773
O -3.1371188900 -0.8685189173 0.5405625271
C -4.2630793058 -0.3100591728 0.6867937209
O -4.5218131493 0.7582079335 1.3097495507
C -5.4298086767 -1.0548289114 0.0419742263
F -6.4928010873 -1.0744513428 0.9043306444
F -5.8492353221 -0.3228170010 -1.0416388096
C -5.0985694007 -2.4625701813 -0.4035492165
F -4.1347247787 -2.5217093173 -1.3611407321
F -6.2344702586 -2.9129480490 -1.0729094856
C -4.8374291717 -3.4989601452 0.6825479921
F -5.8492738325 -3.4377837096 1.6103307920
F -5.0205043412 -4.7418557572 0.1028626502
C -3.5162648562 -3.5995586620 1.4325546528
F -3.3536833193 -2.5496477998 2.2765542851
F -3.6438941951 -4.6615896898 2.3131886351
C -2.2499737169 -3.8933706307 0.6216977551
F -1.9664062028 -2.9148101842 -0.2745161734
F -1.1749508416 -3.9096241968 1.4742850670
C -2.2195334644 -5.2093957801 -0.1506932910
F -3.1358156067 -5.1561393934 -1.1653866905
F -1.0090829828 -5.2846226474 -0.8038103468
C -2.4006446776 -6.5129107359 0.6043562898
F -3.6585453670 -6.6236906577 1.1100583304
F -2.3048116847 -7.5452502650 -0.3016438594
C -1.3620807166 -6.7311614715 1.6904568418
F -1.4796749734 -5.8602172326 2.7140994559
F -0.0970325517 -6.6381540330 1.2218017856
F -1.4831607060 -7.9713379949 2.2340951777

H     0
S    3   1.00
     13.0107010              0.19682158D-01
      1.9622572              0.13796524
      0.44453796             0.47831935
S    1   1.00
      0.12194962             1.0000000
P    1   1.00
      0.8000000              1.0000000
P    1   1.00
      0.11704099050          1.0000000
****
C     0
S    5   1.00
   1238.4016938              0.54568832082D-02
    186.29004992             0.40638409211D-01
     42.251176346            0.18025593888
     11.676557932            0.46315121755
      3.5930506482           0.44087173314
S    1   1.00
      0.40245147363          1.0000000
S    1   1.00
      0.13090182668          1.0000000
S    1   1.00
      0.67053540256D-01      1.0000000
P    3   1.00
      9.4680970621           0.38387871728D-01
      2.0103545142           0.21117025112
      0.54771004707          0.51328172114
P    1   1.00
      0.15268613795          1.0000000
D    1   1.00
      0.8000000              1.0000000
D    1   1.00
      0.11713185140          1.0000000
****
O     0
S    5   1.00
   2266.1767785             -0.53431809926D-02
    340.87010191            -0.39890039230D-01
     77.363135167           -0.17853911985
     21.479644940           -0.46427684959
      6.6589433124          -0.44309745172
S    1   1.00
      0.80975975668          1.0000000
S    1   1.00
      0.25530772234          1.0000000
S    1   1.00
      0.76572453250D-01      1.0000000
P    3   1.00
     17.721504317            0.43394573193D-01
      3.8635505440           0.23094120765
      1.0480920883           0.51375311064
P    1   1.00
      0.27641544411          1.0000000
P    1   1.00
      0.69002276350D-01      1.0000000
D    1   1.00
      1.2000000              1.0000000
D    1   1.00
      0.17992024323          1.0000000
****
F     0
S    5   1.00
   2894.8325990             -0.53408255515D-02
    435.41939120            -0.39904258866D-01
     98.843328866           -0.17912768038
     27.485198001           -0.46758090825
      8.5405498171          -0.44653131020
S    1   1.00
      1.0654578038           1.0000000
S    1   1.00
      0.33247346748          1.0000000
S    1   1.00
      0.98097752264D-01      1.0000000
P    3   1.00
     22.696633924           -0.45212874436D-01
      4.9872339257          -0.23754317067
      1.3491613954          -0.51287353587
P    1   1.00
      0.34829881977          1.0000000
P    1   1.00
      0.83372148304D-01      1.0000000
D    1   1.00
      1.4000000              1.0000000
D    1   1.00
      0.22301361948          1.0000000
****
P     0
S    5   1.00
   8002.4795106              0.57503489302D-02
   1203.6813590              0.43007628959D-01
    273.44227031             0.19363986252
     76.655541517            0.49651693399
     23.516927435            0.44983262479
S    3   1.00
     39.791683439            0.95188129789D-01
      4.2770343323          -0.57649840368
      1.6940256888          -0.54239583865
S    1   1.00
      0.27567674644          1.0000000
S    1   1.00
      0.10495590099          1.0000000
S    1   1.00
      0.64309734755D-01      1.0000000
P    5   1.00
    219.50755823             0.92100565257D-02
     51.274155030            0.65409765745D-01
     15.921595892            0.24033730279
      5.5069913481           0.46318321788
      1.9537719426           0.37392563382
P    1   1.00
      0.47803397932          1.0000000
P    1   1.00
      0.13657952621          1.0000000
D    1   1.00
      0.4500000              1.0000000
D    1   1.00
      0.99587311089D-01      1.0000000
****

