%NProcShared=8
%Mem=48GB
%Chk=opt.chk
#p PBEPBE/GenECP 5D 7F SCF=(XQC,Tight) Integral=UltraFine NoSymm EmpiricalDispersion=GD3BJ Opt=(Cartesian,CalcFC,Tight,MaxCycles=300)

PC4P-Me_PFOS_s24_I_c2_p2__unsolvated | opt | def2-SVPD

0 1
C -4.5960821247 2.0153922360 -1.4096108706
C -5.8466286602 2.0064898108 -2.0292842274
C -6.0918998748 1.1401557373 -3.0919389304
C -5.0872712196 0.2818032381 -3.5333739070
C -3.8361619954 0.2899917411 -2.9137733403
C -3.5767486466 1.1587028781 -1.8475274541
C -2.2382033227 1.1557551155 -1.1547684669
P -1.9731551665 -0.0711810937 0.1560898862
C -1.8475494034 -1.7162809613 -0.4803742337
C -2.3332694280 -2.8110280373 0.2458713304
C -2.2170334283 -4.1115526037 -0.2493379452
C -1.5998456394 -4.3377716699 -1.4759465298
C -1.0911106327 -3.2638508731 -2.1999178004
C -1.2075154278 -1.9651885367 -1.6996085975
C -3.2263286747 0.1341852302 1.3916026644
C -2.9788885570 0.7718677985 2.6122408731
C -3.9949145812 0.9285793692 3.5589478569
C -5.2769546939 0.4542803101 3.2952198678
C -5.5433997446 -0.1755033706 2.0838317847
C -4.5257124424 -0.3320590729 1.1418158175
C -0.3317910071 0.4137533468 0.7721127412
C 0.2838301240 -0.5679070628 1.7635204694
C 1.3947758348 0.0372384731 2.6219101519
C 2.8214042699 -0.1888037558 2.1301164255
P 3.4657989109 0.7799945341 0.7520419713
C 2.8887023648 2.4534673049 1.0586620969
C 2.9080728618 0.1918772722 -0.8148302594
C 2.7729138973 -1.1806280853 -1.0578718620
C 2.3831831245 -1.6509773351 -2.3130142460
C 2.1202515511 -0.7534558052 -3.3442005374
C 2.2521105903 0.6138865266 -3.1199895584
C 2.6498265280 1.0815929163 -1.8657853080
C 5.2394764169 0.7858506402 0.8548744015
C 6.0386867804 0.2575354978 -0.1658060359
C 7.4319116209 0.2733640836 -0.0657765839
C 8.0459147142 0.8194213835 1.0580001546
C 7.2662224235 1.3504926489 2.0813229855
C 5.8738153776 1.3337233280 1.9787852527
H -4.4263373272 2.6865063024 -0.5701775427
H -6.6300669870 2.6719465718 -1.6770205323
H -7.0659581956 1.1310216990 -3.5730979784
H -5.2776325300 -0.3985759681 -4.3591042609
H -3.0686874534 -0.3905544266 -3.2717615875
H -2.0753223262 2.1453446798 -0.7081937481
H -1.4477778443 1.0565621798 -1.9082125248
H -2.8040185712 -2.6601642738 1.2143967584
H -2.6064173620 -4.9463510239 0.3271995196
H -1.5087142444 -5.3491165723 -1.8618889700
H -0.5963871219 -3.4348685493 -3.1519377549
H -0.7821164239 -1.1442809647 -2.2700957528
H -1.9921412829 1.1574608067 2.8478471902
H -3.7836407299 1.4237282971 4.5031075930
H -6.0669829568 0.5778423401 4.0306069526
H -6.5424886171 -0.5430247935 1.8660600941
H -4.7531075035 -0.8188781978 0.1946294982
H 0.3225222640 0.5182176321 -0.0943105727
H -0.4232916504 1.4122528562 1.2117873218
H 0.6332877263 -1.4664074439 1.2435693795
H -0.5100208498 -0.9076404894 2.4393054403
H 1.2129631443 1.1010777728 2.8045950629
H 1.3292557541 -0.4467260109 3.6061420914
H 3.4707455174 0.0447612602 2.9831947854
H 2.9830611496 -1.2539249004 1.9328614237
H 3.0997939828 2.7559806892 2.0882458375
H 3.3874536087 3.1610297541 0.3899985138
H 1.8113518005 2.5337394886 0.8947370610
H 2.9868245045 -1.9004115724 -0.2722551985
H 2.2858171528 -2.7202418620 -2.4820679331
H 1.8185056604 -1.1194392001 -4.3216518844
H 2.0572379949 1.3184187994 -3.9243638395
H 2.7703666049 2.1516813405 -1.7203034991
H 5.5866742816 -0.1718636551 -1.0560481790
H 8.0358818118 -0.1411433687 -0.8686345973
H 9.1295537342 0.8314148503 1.1350427871
H 7.7408372401 1.7783245280 2.9602838678
H 5.2825433252 1.7530882675 2.7887754920
I -4.0542758662 -2.6878477604 -2.0398136155
O 5.2116381698 -1.9554221326 0.9310418088
S 4.7346636112 -3.3395002866 0.9812430322
O 4.2003609831 -3.8175896053 -0.2951660354
O 3.8738147229 -3.6231161910 2.1297775379
C 6.2209105716 -4.3413068188 1.2483230817
F 6.9446078307 -4.5158575351 0.0873108495
F 7.1131230144 -3.7339467811 2.1105678013
C 5.8796388000 -5.7014420409 1.8150871986
F 7.0812979201 -6.3815140810 1.9384585933
F 5.4280261232 -5.6309838557 3.0996965300
C 4.9549665558 -6.5587429648 0.9675864475
F 5.4099571879 -6.6133814428 -0.3151350185
F 3.6936019524 -6.0756906548 0.9189494646
C 4.8920761622 -7.9760277047 1.5198658878
F 6.1326228393 -8.5435061148 1.5218655189
F 4.4880355771 -7.9708648003 2.8200623751
C 3.9525593002 -8.8482554273 0.7009904728
F 2.6947531227 -8.3330627993 0.6953869936
F 4.3541594960 -8.8849085074 -0.5994996114
C 3.9106926811 -10.2635511286 1.2513011943
F 3.5123621652 -10.2557596864 2.5529242257
F 5.1595035180 -10.8077645401 1.2496643515
C 2.9786111186 -11.1337447952 0.4389011201
F 3.3692413886 -11.1762425703 -0.8670313978
F 1.7142396096 -10.6249649914 0.4352276221
C 2.9639154632 -12.5369209988 1.0132623435
F 2.1360860945 -13.3483784970 0.3044856493
F 2.5302893898 -12.5723330213 2.2949408117
F 4.1847804263 -13.1219137628 0.9896035552

H     0
S    3   1.00
     13.0107010              0.19682158D-01
      1.9622572              0.13796524
      0.44453796             0.47831935
S    1   1.00
      0.12194962             1.0000000
P    1   1.00
      0.8000000              1.0000000
P    1   1.00
      0.11704099050          1.0000000
****
C     0
S    5   1.00
   1238.4016938              0.54568832082D-02
    186.29004992             0.40638409211D-01
     42.251176346            0.18025593888
     11.676557932            0.46315121755
      3.5930506482           0.44087173314
S    1   1.00
      0.40245147363          1.0000000
S    1   1.00
      0.13090182668          1.0000000
S    1   1.00
      0.67053540256D-01      1.0000000
P    3   1.00
      9.4680970621           0.38387871728D-01
      2.0103545142           0.21117025112
      0.54771004707          0.51328172114
P    1   1.00
      0.15268613795          1.0000000
D    1   1.00
      0.8000000              1.0000000
D    1   1.00
      0.11713185140          1.0000000
****
O     0
S    5   1.00
   2266.1767785             -0.53431809926D-02
    340.87010191            -0.39890039230D-01
     77.363135167           -0.17853911985
     21.479644940           -0.46427684959
      6.6589433124          -0.44309745172
S    1   1.00
      0.80975975668          1.0000000
S    1   1.00
      0.25530772234          1.0000000
S    1   1.00
      0.76572453250D-01      1.0000000
P    3   1.00
     17.721504317            0.43394573193D-01
      3.8635505440           0.23094120765
      1.0480920883           0.51375311064
P    1   1.00
      0.27641544411          1.0000000
P    1   1.00
      0.69002276350D-01      1.0000000
D    1   1.00
      1.2000000              1.0000000
D    1   1.00
      0.17992024323          1.0000000
****
F     0
S    5   1.00
   2894.8325990             -0.53408255515D-02
    435.41939120            -0.39904258866D-01
     98.843328866           -0.17912768038
     27.485198001           -0.46758090825
      8.5405498171          -0.44653131020
S    1   1.00
      1.0654578038           1.0000000
S    1   1.00
      0.33247346748          1.0000000
S    1   1.00
      0.98097752264D-01      1.0000000
P    3   1.00
     22.696633924           -0.45212874436D-01
      4.9872339257          -0.23754317067
      1.3491613954          -0.51287353587
P    1   1.00
      0.34829881977          1.0000000
P    1   1.00
      0.83372148304D-01      1.0000000
D    1   1.00
      1.4000000              1.0000000
D    1   1.00
      0.22301361948          1.0000000
****
P     0
S    5   1.00
   8002.4795106              0.57503489302D-02
   1203.6813590              0.43007628959D-01
    273.44227031             0.19363986252
     76.655541517            0.49651693399
     23.516927435            0.44983262479
S    3   1.00
     39.791683439            0.95188129789D-01
      4.2770343323          -0.57649840368
      1.6940256888          -0.54239583865
S    1   1.00
      0.27567674644          1.0000000
S    1   1.00
      0.10495590099          1.0000000
S    1   1.00
      0.64309734755D-01      1.0000000
P    5   1.00
    219.50755823             0.92100565257D-02
     51.274155030            0.65409765745D-01
     15.921595892            0.24033730279
      5.5069913481           0.46318321788
      1.9537719426           0.37392563382
P    1   1.00
      0.47803397932          1.0000000
P    1   1.00
      0.13657952621          1.0000000
D    1   1.00
      0.4500000              1.0000000
D    1   1.00
      0.99587311089D-01      1.0000000
****
S     0
S    5   1.00
   9184.9303010             -0.22294387756D-02
   1381.5105503             -0.16683029937D-01
    313.87147580            -0.75262436116D-01
     88.053870623           -0.19376827038
     27.039914905           -0.17718020803
S    3   1.00
     45.648731303           -0.10736062573
      4.9664522326           0.65066293018
      2.0116242047           0.59712155354
S    1   1.00
      0.35661077013          1.0000000
S    1   1.00
      0.13507221477          1.0000000
S    1   1.00
      0.44999823506D-01      1.0000000
P    5   1.00
    261.98233439            -0.92729929822D-02
     61.306894736           -0.66547669241D-01
     19.103729887           -0.24828595903
      6.6567720378          -0.48703847402
      2.3959635161          -0.39337850312
P    1   1.00
      0.61776161679          1.0000000
P    1   1.00
      0.16993376871          1.0000000
P    1   1.00
      0.41706793676D-01      1.0000000
D    1   1.00
      0.5500000              1.0000000
D    1   1.00
      0.10172853717          1.0000000
****
I     0
S    2   1.00
     11.720547572           -0.16160234511D-01
      1.7625986449           0.35271525193
S    6   1.00
    445.90489176             0.20037290389D-02
     23.336842412           -0.14989397324
     19.583446104            0.36436474913
      8.5112089186          -0.75538138199
      2.1996161861           0.82816359356
      1.0668970454           0.42161048110
S    1   1.00
      0.28697476318          1.0000000
S    1   1.00
      0.11227609607          1.0000000
S    1   1.00
      0.45123635492D-01      1.0000000
P    1   1.00
      3.0288656771           1.0000000
P    4   1.00
     20.499027254            0.77159335656D-01
     10.558754576           -0.38370372780
      1.5015895485           0.83554174719
      0.64597173095          0.16787259488
P    1   1.00
      0.34506591841          1.0000000
P    1   1.00
      0.11134513813          1.0000000
P    1   1.00
      0.29795507230D-01      1.0000000
D    5   1.00
     51.235354920            0.40345130346D-02
     15.616239482           -0.50768108881D-02
      4.5266002139           0.29151065356
      2.0529808766           0.51145783605
      0.87640281623          0.31232025297
D    1   1.00
      0.30900000000          1.0000000
D    1   1.00
      0.77987255180D-01      1.0000000
****

I     0
I-ECP     3     28
f potential
  4
2     19.45860900           -21.84204000
2     19.34926000           -28.46819100
2      4.82376700            -0.24371300
2      4.88431500            -0.32080400
s-f potential
  7
2     40.01583500            49.99429300
2     17.42974700           281.02531700
2      9.00548400            61.57332600
2     19.45860900            21.84204000
2     19.34926000            28.46819100
2      4.82376700             0.24371300
2      4.88431500             0.32080400
p-f potential
  8
2     15.35546600            67.44284100
2     14.97183300           134.88113700
2      8.96016400            14.67505100
2      8.25909600            29.37566600
2     19.45860900            21.84204000
2     19.34926000            28.46819100
2      4.82376700             0.24371300
2      4.88431500             0.32080400
d-f potential
  10
2     15.06890800            35.43952900
2     14.55532200            53.17605700
2      6.71864700             9.06719500
2      6.45639300            13.20693700
2      1.19177900             0.08933500
2      1.29115700             0.05238000
2     19.45860900            21.84204000
2     19.34926000            28.46819100
2      4.82376700             0.24371300
2      4.88431500             0.32080400

