%NProcShared=8
%Mem=48GB
%Chk=opt.chk
#p PBEPBE/6-31+G(d,p) Opt=(CalcFC,Tight,MaxCycles=250) EmpiricalDispersion=GD3BJ SCF=(XQC,Tight) Integral=UltraFine NoSymm

PC4P-Me_PFPeA_head_axial__unsolvated | opt

0 1
C   5.5991576045  5.0351062926  3.2796123962
C   5.9017404588  6.3537159287  2.9360555197
C   5.4874887333  7.4013431612  3.7559523243
C   4.7708205826  7.1309835353  4.9196941918
C   4.4694631623  5.8128777440  5.2651287443
C   4.8811280848  4.7520931811  4.4489073430
C   4.5322391128  3.3295813928  4.8100055705
P   2.8892605629  2.7309567002  4.3268351300
C   1.6697874120  3.8090611679  5.0178057770
C   1.2524796256  3.6330665169  6.3445618205
C   0.3055691714  4.4829132124  6.9183794165
C  -0.2294864681  5.5309665834  6.1750195897
C   0.1876290361  5.7303437150  4.8617470177
C   1.1336365606  4.8769992973  4.2898132487
C   2.6716408868  1.0401334046  4.8263772821
C   1.3811144585  0.5048574379  4.9459489726
C   1.1842693166 -0.8277943517  5.3104480861
C   2.2786172092 -1.6497865355  5.5588279815
C   3.5673855337 -1.1372953084  5.4392160729
C   3.7615550079  0.1971403273  5.0724249440
C   2.9318301651  2.7753732752  2.5172856550
C   1.6559531150  2.2836615803  1.8412358781
C   1.8222291261  2.1681970674  0.3306037470
C   0.5664413599  1.6724539472 -0.3819740012
P   0.0000000000  0.0000000000  0.0000000000
C  -1.0944779190 -0.3576784600 -1.3899930037
C  -1.0094083402 -0.1168061802  1.4476758236
C  -1.5715664294  1.0076614341  2.0609786030
C  -2.3809047225  0.8793497208  3.1926512405
C  -2.6550306940 -0.3806895491  3.7168715218
C  -2.1230973861 -1.5122973068  3.1062486617
C  -1.3107098883 -1.3793719249  1.9787454064
C   1.3810760087 -1.1048559713 -0.0066585991
C   1.8750020007 -1.6417128612 -1.2012441916
C   2.9800183247 -2.4967289935 -1.1998171662
C   3.6115734556 -2.8213653682 -0.0019873664
C   3.1393216758 -2.2886573724  1.1934527408
C   2.0343565156 -1.4362376553  1.1883023903
H   5.9264226289  4.2297456687  2.6259961567
H   6.4598049073  6.5633139837  2.0274268355
H   5.7215777088  8.4279524490  3.4878979968
H   4.4419071328  7.9459054925  5.5589637697
H   3.9013106421  5.6199763824  6.1729596420
H   5.2867252835  2.6698182940  4.3658002173
H   4.6342205771  3.2086342219  5.8957830462
H   1.6676064717  2.8239730264  6.9418864243
H  -0.0104738761  4.3265947613  7.9462429283
H  -0.9644153100  6.1957072621  6.6203459625
H  -0.2165950902  6.5557814641  4.2818773145
H   1.4612071324  5.0681908709  3.2718517717
H   0.5116136796  1.1258151658  4.7387142593
H   0.1744496324 -1.2214130485  5.3891658421
H   2.1268481492 -2.6882265468  5.8394726400
H   4.4251632822 -1.7775672353  5.6276623979
H   4.7791917087  0.5620929917  4.9756759825
H   3.1489466834  3.7942740540  2.1812388191
H   3.7761864750  2.1520837482  2.1995087143
H   1.3899428709  1.3107220969  2.2540013206
H   0.8316702432  2.9642278973  2.0752049296
H   2.0910075824  3.1500084040 -0.0779931747
H   2.6568134459  1.4950871698  0.1043999632
H  -0.2546354851  2.3824221139 -0.2392760914
H   0.7854216421  1.6877614594 -1.4570864931
H  -0.5857586117 -0.2077416464 -2.3458633887
H  -1.9624409783  0.3078659387 -1.3633891940
H  -1.4492660491 -1.3910085365 -1.3402656622
H  -1.3886048843  2.0025407214  1.6678627353
H  -2.7987432481  1.7663855049  3.6620235555
H  -3.2865931678 -0.4799156498  4.5952362522
H  -2.3397355754 -2.4999334934  3.5040579181
H  -0.9078540197 -2.2744219598  1.5089490572
H   1.4082375651 -1.3950189695 -2.1502827774
H   3.3493355918 -2.9061890587 -2.1363164393
H   4.4717929952 -3.4847656890 -0.0006933503
H   3.6280999754 -2.5303691931  2.1335605118
H   1.6869266852 -1.0273389593  2.1344602148
Cl  3.7140190680  1.3597692002  7.4957652725
O  -0.3416292925 -3.1145833333 -0.8632265556
C  -0.4744115589 -4.3251394619 -1.1987398764
O  -0.2415288221 -4.8474964971 -2.3303790645
C  -1.0133127931 -5.2979518426 -0.1470318467
F  -0.2827393709 -6.4522442257 -0.1432153220
F  -0.8824524644 -4.7815610800  1.1131464967
C  -2.4578548604 -5.5869871631 -0.4543184968
F  -3.2184506685 -4.4595791617 -0.2633289106
F  -2.9167344461 -6.4538888416  0.5216598576
C  -2.8231770675 -6.1915371917 -1.7982758105
F  -4.1873154819 -6.4488191494 -1.7632301956
F  -2.7015940734 -5.3125842674 -2.8260643322
C  -2.1266551458 -7.5129185638 -2.0831858977
F  -2.6262822523 -8.0807510396 -3.2193277182
F  -2.3599988368 -8.4182076728 -1.0942822442
F  -0.7943493896 -7.4603226746 -2.2479806213

