%NProcShared=8
%Mem=30GB
%Chk=opt.chk
#p PBEPBE/6-31+G(d,p) Opt=(CalcFC,Tight,MaxCycles=250) EmpiricalDispersion=GD3BJ SCF=(XQC,Tight) Integral=UltraFine NoSymm SCRF=(SMD,Solvent=Water)

A400_PFNA_alternate_oxygen__water | opt

0 1
C  -0.5566950646 -1.3439910110  0.4592976295
N   0.0000000000  0.0000000000  0.0000000000
C  -0.9594641671  1.0996553712  0.4304987401
C   1.3485241254  0.2247909877  0.6679034873
C   0.1420150732 -0.0422755299 -1.5364310404
C   0.6810559772  1.1994261314 -2.2010522821
C  -0.1877259808  2.2128930114 -2.6370155881
C   0.3139375804  3.3661586663 -3.2424136725
C   1.6859302837  3.5180772901 -3.4257345329
C   2.5587425457  2.5152445016 -3.0115164457
C   2.0609560473  1.3605097366 -2.4057193018
H   0.1424293286 -2.1301424508  0.1588556904
H  -0.6614552734 -1.3248548526  1.5483212912
H  -1.5317440727 -1.4955319577 -0.0133445064
H  -0.5187469867  2.0723055426  0.1973944615
H  -1.9064488236  0.9618991836 -0.0994134768
H  -1.1149952178  1.0177810668  1.5108153356
H   1.2161652754  0.1341287521  1.7506033912
H   2.0463507845 -0.5364429500  0.3071754486
H   1.7059899172  1.2289998720  0.4262394257
H   0.7881721381 -0.8983901726 -1.7707046177
H  -0.8519639239 -0.2766833010 -1.9394119370
H  -1.2658178352  2.1163836549 -2.5238209405
H  -0.3644110007  4.1464237169 -3.5824130181
H   2.0750360572  4.4147647772 -3.9041382234
H   3.6288412348  2.6327438993 -3.1716727930
H   2.7673178724  0.5875890280 -2.1089783858
O  -4.4127379076 -1.6133293047  0.1634997202
C  -3.9746218019 -0.7501074183  0.9756392282
O  -2.8199056720 -0.2250000000  0.9987527227
C  -4.9116440290 -0.2933312318  2.0987262149
F  -6.2140983945 -0.5891459416  1.8013894339
F  -4.8689960001  1.0651359436  2.2326277491
C  -4.4912223639 -0.9729513078  3.3758070881
F  -4.7122150697 -2.3255295367  3.2899018373
F  -5.3612626371 -0.5670586384  4.3700737932
C  -3.0732689577 -0.7537363039  3.8969300585
F  -2.9873567211 -1.4132956789  5.1090135986
F  -2.1504079196 -1.3822948466  3.1328111266
C  -2.7037546469  0.6986484283  4.1556959976
F  -3.7079938332  1.2839529075  4.8895567177
F  -2.6217940565  1.4405349923  3.0269169848
C  -1.4161257771  0.8785548961  4.9493105298
F  -1.5526004970  0.3370255898  6.1965374649
F  -1.2568028874  2.2238496589  5.1760470045
C  -0.1563376452  0.3369785120  4.2992114395
F  -0.1945435185 -1.0202584038  4.2600253486
F  -0.0553949326  0.7661699045  3.0177871939
C   1.0703162596  0.7656218841  5.0737598740
F   1.1766810256  2.1253900096  5.1157294354
F   0.9856147654  0.3623355307  6.3755701658
C   2.3152417032  0.1787439378  4.4370127837
F   2.3138509596 -1.1742593603  4.4318538296
F   3.4292203680  0.5548562627  5.1223713118
F   2.4973630891  0.5890226333  3.1616124749

