%NProcShared=8
%Mem=30GB
%Chk=opt.chk
#p PBEPBE/Gen 5D 7F SCF=(XQC,Tight) Integral=UltraFine NoSymm EmpiricalDispersion=GD3BJ Opt=(Cartesian,CalcFC,Tight,MaxCycles=300)

free_PFPeA_c1__unsolvated | opt | def2-SVPD

-1 1
O 1.4014915151 0.7600274495 -1.5823152202
C 1.9697916185 0.0111227734 -0.7315020245
O 3.1767439546 0.0391854499 -0.3598494822
C 1.0468638089 -1.0143789764 -0.0686172411
F 0.2736026736 -1.6390945076 -1.0056022360
F 1.7685377254 -2.0111043781 0.5293461590
C 0.1853230089 -0.3047239257 0.9407425442
F 0.9538349489 0.1515206866 1.9834595396
F -0.6228321279 -1.2604504143 1.5307304089
C -0.7191547222 0.8243490904 0.4800023933
F -0.0365008057 1.9526511451 0.1565665180
F -1.4664563567 1.2135496236 1.5837940902
C -1.7037602317 0.4145471148 -0.6039597418
F -2.4591011320 -0.6467890918 -0.2103180322
F -2.5926105661 1.4213962578 -0.8470145373
F -1.1757733116 0.0881917027 -1.7954631376

C     0
S    5   1.00
   1238.4016938              0.54568832082D-02
    186.29004992             0.40638409211D-01
     42.251176346            0.18025593888
     11.676557932            0.46315121755
      3.5930506482           0.44087173314
S    1   1.00
      0.40245147363          1.0000000
S    1   1.00
      0.13090182668          1.0000000
S    1   1.00
      0.67053540256D-01      1.0000000
P    3   1.00
      9.4680970621           0.38387871728D-01
      2.0103545142           0.21117025112
      0.54771004707          0.51328172114
P    1   1.00
      0.15268613795          1.0000000
D    1   1.00
      0.8000000              1.0000000
D    1   1.00
      0.11713185140          1.0000000
****
O     0
S    5   1.00
   2266.1767785             -0.53431809926D-02
    340.87010191            -0.39890039230D-01
     77.363135167           -0.17853911985
     21.479644940           -0.46427684959
      6.6589433124          -0.44309745172
S    1   1.00
      0.80975975668          1.0000000
S    1   1.00
      0.25530772234          1.0000000
S    1   1.00
      0.76572453250D-01      1.0000000
P    3   1.00
     17.721504317            0.43394573193D-01
      3.8635505440           0.23094120765
      1.0480920883           0.51375311064
P    1   1.00
      0.27641544411          1.0000000
P    1   1.00
      0.69002276350D-01      1.0000000
D    1   1.00
      1.2000000              1.0000000
D    1   1.00
      0.17992024323          1.0000000
****
F     0
S    5   1.00
   2894.8325990             -0.53408255515D-02
    435.41939120            -0.39904258866D-01
     98.843328866           -0.17912768038
     27.485198001           -0.46758090825
      8.5405498171          -0.44653131020
S    1   1.00
      1.0654578038           1.0000000
S    1   1.00
      0.33247346748          1.0000000
S    1   1.00
      0.98097752264D-01      1.0000000
P    3   1.00
     22.696633924           -0.45212874436D-01
      4.9872339257          -0.23754317067
      1.3491613954          -0.51287353587
P    1   1.00
      0.34829881977          1.0000000
P    1   1.00
      0.83372148304D-01      1.0000000
D    1   1.00
      1.4000000              1.0000000
D    1   1.00
      0.22301361948          1.0000000
****

