%NProcShared=8
%Mem=48GB
%OldChk=freq.chk
%Chk=sp.chk
#p PBE1PBE/GenECP 5D 7F SCF=(XQC,Tight) Integral=UltraFine NoSymm EmpiricalDispersion=GD3BJ SP Geom=AllCheck Guess=Read

H     0
S    3   1.00
     34.0613410              0.60251978D-02
      5.1235746              0.45021094D-01
      1.1646626              0.20189726
S    1   1.00
      0.32723041             1.0000000
S    1   1.00
      0.10307241             1.0000000
P    1   1.00
      0.8000000              1.0000000
P    1   1.00
      0.95774129632D-01      1.0000000
****
C     0
S    6   1.00
  13575.3496820              0.22245814352D-03
   2035.2333680              0.17232738252D-02
    463.22562359             0.89255715314D-02
    131.20019598             0.35727984502D-01
     42.853015891            0.11076259931
     15.584185766            0.24295627626
S    2   1.00
      6.2067138508           0.41440263448
      2.5764896527           0.23744968655
S    1   1.00
      0.57696339419          1.0000000
S    1   1.00
      0.22972831358          1.0000000
S    1   1.00
      0.95164440028D-01      1.0000000
S    1   1.00
      0.48475401370D-01      1.0000000
P    4   1.00
     34.697232244            0.53333657805D-02
      7.9582622826           0.35864109092D-01
      2.3780826883           0.14215873329
      0.81433208183          0.34270471845
P    1   1.00
      0.28887547253           .46445822433
P    1   1.00
      0.10056823671           .24955789874
D    1   1.00
      1.09700000             1.0000000
D    1   1.00
      0.31800000             1.0000000
D    1   1.00
      0.90985336424D-01      1.0000000
F    1   1.00
      0.76100000             1.0000000
****
P     0
S    7   1.00
  52426.9992330              0.55207164100D-03
   7863.2660552              0.42678595308D-02
   1789.5227333              0.21931529186D-01
    506.27300165             0.85667168373D-01
    164.60698546             0.24840686605
     58.391918722            0.46336753971
     21.643663201            0.35350558156
S    3   1.00
     99.013837620            0.21895679958D-01
     30.550439817            0.95650470295D-01
      5.4537087661          -0.29454270186
S    2   1.00
      2.6503362563           1.3294381200
      1.2726688867           0.66109396473
S    1   1.00
      0.31645005203          1.0000000
S    1   1.00
      0.11417466938          1.0000000
S    1   1.00
      0.48831315225D-01      1.0000000
P    5   1.00
    472.27219248             0.25710623052D-02
    111.58882756             0.20250297999D-01
     35.445936418            0.91580716787D-01
     12.990776875            0.25749454014
      5.0486221658           0.42862899758
P    1   1.00
      1.9934049566            .34359817849
P    1   1.00
      0.66527284430          1.0000000
P    1   1.00
      0.25516832128          1.0000000
P    1   1.00
      0.90357762251D-01      1.0000000
D    2   1.00
      3.12000000             0.20000000
      0.648000000            1.00000000
D    1   1.00
      0.218000000            1.0000000
D    1   1.00
      0.73569545334D-01      1.0000000
F    1   1.00
      0.452000000            1.0000000
****
I     0
S    5   1.00
   5899.5791533              0.24188269271D-03
    898.54238765             0.15474041742D-02
    200.37237912             0.42836684457D-02
     31.418053840           -0.39417936275D-01
     15.645987838            0.96086691992
S    2   1.00
     11.815741857            0.75961524091
      6.4614458287           0.42495501835
S    1   1.00
      2.3838067579           1.0000000
S    1   1.00
      1.1712089662           1.0000000
S    1   1.00
      0.32115875757          1.0000000
S    1   1.00
      0.12387919364          1.0000000
S    1   1.00
      0.43491550641D-01      1.0000000
P    3   1.00
    197.30030547             0.73951226905D-03
     20.061411349            0.66168450008D-01
      9.7631460485          -0.28554662348
P    4   1.00
     12.984316904           -0.49096186164D-01
      3.6199503008           0.38914432482
      2.0232273090           0.65610817262
      1.0367490559           0.31803551647
P    1   1.00
      0.45937816000          1.0000000
P    1   1.00
      0.19116532928          1.0000000
P    1   1.00
      0.74878813023D-01      1.0000000
P    1   1.00
      0.21653491846D-01      1.0000000
D    6   1.00
    119.12671745             0.82596039573D-03
     33.404240134            0.68377675770D-02
     17.805918203           -0.10308158997D-01
      4.8990510353           0.22670457658
      2.4516753106           0.44180113937
      1.1820693432           0.36775472225
D    1   1.00
      0.52923110068          1.0000000
D    1   1.00
      0.17000000000          1.0000000
D    1   1.00
      0.61341708807D-01      1.0000000
F    1   1.00
      2.1800000              1.0000000
F    1   1.00
      0.44141808             1.0000000
****

I     0
I-ECP     3     28
f potential
  4
2     19.45860900           -21.84204000
2     19.34926000           -28.46819100
2      4.82376700            -0.24371300
2      4.88431500            -0.32080400
s-f potential
  7
2     40.01583500            49.99429300
2     17.42974700           281.02531700
2      9.00548400            61.57332600
2     19.45860900            21.84204000
2     19.34926000            28.46819100
2      4.82376700             0.24371300
2      4.88431500             0.32080400
p-f potential
  8
2     15.35546600            67.44284100
2     14.97183300           134.88113700
2      8.96016400            14.67505100
2      8.25909600            29.37566600
2     19.45860900            21.84204000
2     19.34926000            28.46819100
2      4.82376700             0.24371300
2      4.88431500             0.32080400
d-f potential
  10
2     15.06890800            35.43952900
2     14.55532200            53.17605700
2      6.71864700             9.06719500
2      6.45639300            13.20693700
2      1.19177900             0.08933500
2      1.29115700             0.05238000
2     19.45860900            21.84204000
2     19.34926000            28.46819100
2      4.82376700             0.24371300
2      4.88431500             0.32080400

