%NProcShared=8
%Mem=30GB
%Chk=opt.chk
#p PBEPBE/6-31+G(d,p) Opt=(CalcFC,Tight,MaxCycles=250) EmpiricalDispersion=GD3BJ SCF=(XQC,Tight) Integral=UltraFine NoSymm

A400_PFOS_head_axial__unsolvated | opt

0 1
C  -0.5566950646 -1.3439910110  0.4592976295
N   0.0000000000  0.0000000000  0.0000000000
C  -0.9594641671  1.0996553712  0.4304987401
C   1.3485241254  0.2247909877  0.6679034873
C   0.1420150732 -0.0422755299 -1.5364310404
C   0.6810559772  1.1994261314 -2.2010522821
C  -0.1877259808  2.2128930114 -2.6370155881
C   0.3139375804  3.3661586663 -3.2424136725
C   1.6859302837  3.5180772901 -3.4257345329
C   2.5587425457  2.5152445016 -3.0115164457
C   2.0609560473  1.3605097366 -2.4057193018
H   0.1424293286 -2.1301424508  0.1588556904
H  -0.6614552734 -1.3248548526  1.5483212912
H  -1.5317440727 -1.4955319577 -0.0133445064
H  -0.5187469867  2.0723055426  0.1973944615
H  -1.9064488236  0.9618991836 -0.0994134768
H  -1.1149952178  1.0177810668  1.5108153356
H   1.2161652754  0.1341287521  1.7506033912
H   2.0463507845 -0.5364429500  0.3071754486
H   1.7059899172  1.2289998720  0.4262394257
H   0.7881721381 -0.8983901726 -1.7707046177
H  -0.8519639239 -0.2766833010 -1.9394119370
H  -1.2658178352  2.1163836549 -2.5238209405
H  -0.3644110007  4.1464237169 -3.5824130181
H   2.0750360572  4.4147647772 -3.9041382234
H   3.6288412348  2.6327438993 -3.1716727930
H   2.7673178724  0.5875890280 -2.1089783858
O  -2.8199056720 -0.2250000000  0.9987527227
S  -4.1935649816 -0.3346041431  1.4852746619
O  -4.6658640654  0.8460939696  2.2100866909
O  -5.1383975347 -0.8190122494  0.4770943841
C  -4.1529574845 -1.6610252670  2.7185438074
F  -5.4114367518 -2.0203916192  3.1450115171
F  -3.5095965391 -1.2797000796  3.8787977206
C  -3.4535399907 -2.8870110618  2.1710150584
F  -3.5426776851 -3.8699779700  3.1473994004
F  -2.1010400906 -2.6736379580  2.0781102454
C  -3.9378789830 -3.5187321319  0.8725953811
F  -3.6745503426 -2.7542567624 -0.2101308104
F  -3.1559969402 -4.6427021239  0.6726017136
C  -5.3868593055 -3.9879044354  0.8990892428
F  -6.2432241115 -2.9916232478  1.2027701575
F  -5.5451974551 -4.9100225809  1.8945739917
C  -5.7910173225 -4.6150089426 -0.4244515004
F  -5.7781898019 -3.6953781308 -1.4266220670
F  -4.8652703235 -5.5577163387 -0.7920887396
C  -7.1428521232 -5.3130987930 -0.4027982518
F  -7.0989263045 -6.3818675228  0.4468702232
F  -7.3406225175 -5.8652140714 -1.6433265211
C  -8.3230227634 -4.4382106198 -0.0550051937
F  -8.2701489589 -4.0631618027  1.2524206215
F  -8.3137947372 -3.2963329967 -0.7913615786
C  -9.6112822996 -5.2028416200 -0.2993029971
F  -10.6983686062 -4.4636907168  0.0420716117
F  -9.6805974029 -6.3446043479  0.4268199466
F  -9.7794108243 -5.5490980752 -1.5976158897

