%NProcShared=8
%Mem=30GB
%Chk=opt.chk
#p PBEPBE/Gen 5D 7F SCF=(XQC,Tight) Integral=UltraFine NoSymm EmpiricalDispersion=GD3BJ Opt=(Cartesian,CalcFC,Tight,MaxCycles=300)

A400_PFOS_s1_c3_p3__unsolvated | opt | def2-SVPD

0 1
C -1.3328226986 -0.0017917514 -1.6515233658
N -1.5561288828 -0.1483040528 -0.1535857397
C -2.8687598092 -0.8908644845 0.0761630564
C -1.6602780163 1.2343728714 0.4729153955
C -0.4231449540 -0.9690183113 0.4986060782
C 0.9715101633 -0.4064986209 0.3862857572
C 1.4761141223 0.4586668701 1.3705755018
C 2.7633858494 0.9866417272 1.2593709369
C 3.5633615477 0.6523496608 0.1697200044
C 3.0819065333 -0.2156520197 -0.8069199206
C 1.7951852533 -0.7457042252 -0.6992831564
H -2.2119675834 0.4852750425 -2.0849355740
H -1.2017251023 -0.9985545694 -2.0826086805
H -0.4493513336 0.6181792172 -1.8239396809
H -3.0314376324 -0.9826779677 1.1542088374
H -2.7939049352 -1.8793552614 -0.3868267064
H -3.6795944155 -0.3170266669 -0.3827177215
H -2.5427383575 1.7337945800 0.0608235080
H -0.7650313891 1.8098085720 0.2238694911
H -1.7624746864 1.1185784559 1.5558345286
H -0.6896994027 -1.0906777819 1.5566616524
H -0.4569784402 -1.9691189228 0.0469554619
H 0.8822376667 0.7253424116 2.2427016924
H 3.1509455236 1.6531793525 2.0275457249
H 4.5693256394 1.0593787646 0.0879558761
H 3.7175573136 -0.4855615240 -1.6481489520
H 1.4545080268 -1.4347613656 -1.4697040056
O -6.0621691971 0.9522924828 2.6375457379
S -5.5780571899 0.6220375554 1.2947257233
O -4.1222801568 0.6766959472 1.1633207259
O -6.1860776829 -0.5789575541 0.7267486925
C -6.2030023394 1.9693794460 0.2772125655
F -5.6812130219 3.1862169556 0.6659902604
F -5.8241696803 1.8477015803 -1.0437881999
C -7.7171723687 2.0601648590 0.3361886780
F -8.3485547112 1.0433034797 -0.3098732096
F -8.0330550996 3.1714026961 -0.4474930342
C -8.3412808552 2.3207637437 1.7043739305
F -7.5118285995 3.0305892325 2.4984071256
F -9.3945176375 3.2074016440 1.5026906282
C -8.9976139257 1.1094512040 2.3679814196
F -10.1101166724 0.8111329561 1.5985168459
F -8.2825112814 -0.0292148371 2.3428460522
C -9.5036147701 1.3751746420 3.7792765008
F -10.2475417136 2.5192151155 3.8016117729
F -10.3967648765 0.3762208855 4.0927938203
C -8.4483802265 1.4119352889 4.8740393483
F -7.5687416142 2.4219954005 4.6771194981
F -7.7393073777 0.2551801313 4.8884192200
C -9.1010226215 1.6015383410 6.2257971048
F -9.9932920007 0.6031390449 6.4904666340
F -9.8272061725 2.7585545990 6.2544016571
C -8.0437933732 1.6380580752 7.3127981830
F -8.6210576842 1.8131748716 8.5340727253
F -7.1674564539 2.6574357917 7.1624857803
F -7.3288959002 0.4934565615 7.3948918159

H     0
S    3   1.00
     13.0107010              0.19682158D-01
      1.9622572              0.13796524
      0.44453796             0.47831935
S    1   1.00
      0.12194962             1.0000000
P    1   1.00
      0.8000000              1.0000000
P    1   1.00
      0.11704099050          1.0000000
****
C     0
S    5   1.00
   1238.4016938              0.54568832082D-02
    186.29004992             0.40638409211D-01
     42.251176346            0.18025593888
     11.676557932            0.46315121755
      3.5930506482           0.44087173314
S    1   1.00
      0.40245147363          1.0000000
S    1   1.00
      0.13090182668          1.0000000
S    1   1.00
      0.67053540256D-01      1.0000000
P    3   1.00
      9.4680970621           0.38387871728D-01
      2.0103545142           0.21117025112
      0.54771004707          0.51328172114
P    1   1.00
      0.15268613795          1.0000000
D    1   1.00
      0.8000000              1.0000000
D    1   1.00
      0.11713185140          1.0000000
****
N     0
S    5   1.00
   1712.8415853             -0.53934125305D-02
    257.64812677            -0.40221581118D-01
     58.458245853           -0.17931144990
     16.198367905           -0.46376317823
      5.0052600809          -0.44171422662
S    1   1.00
      0.58731856571          1.0000000
S    1   1.00
      0.18764592253          1.0000000
S    1   1.00
      0.96171241529D-01      1.0000000
P    3   1.00
     13.571470233           -0.40072398852D-01
      2.9257372874          -0.21807045028
      0.79927750754         -0.51294466049
P    1   1.00
      0.21954348034          1.0000000
D    1   1.00
      1.0000000              1.0000000
D    1   1.00
      0.16697708112          1.0000000
****
O     0
S    5   1.00
   2266.1767785             -0.53431809926D-02
    340.87010191            -0.39890039230D-01
     77.363135167           -0.17853911985
     21.479644940           -0.46427684959
      6.6589433124          -0.44309745172
S    1   1.00
      0.80975975668          1.0000000
S    1   1.00
      0.25530772234          1.0000000
S    1   1.00
      0.76572453250D-01      1.0000000
P    3   1.00
     17.721504317            0.43394573193D-01
      3.8635505440           0.23094120765
      1.0480920883           0.51375311064
P    1   1.00
      0.27641544411          1.0000000
P    1   1.00
      0.69002276350D-01      1.0000000
D    1   1.00
      1.2000000              1.0000000
D    1   1.00
      0.17992024323          1.0000000
****
F     0
S    5   1.00
   2894.8325990             -0.53408255515D-02
    435.41939120            -0.39904258866D-01
     98.843328866           -0.17912768038
     27.485198001           -0.46758090825
      8.5405498171          -0.44653131020
S    1   1.00
      1.0654578038           1.0000000
S    1   1.00
      0.33247346748          1.0000000
S    1   1.00
      0.98097752264D-01      1.0000000
P    3   1.00
     22.696633924           -0.45212874436D-01
      4.9872339257          -0.23754317067
      1.3491613954          -0.51287353587
P    1   1.00
      0.34829881977          1.0000000
P    1   1.00
      0.83372148304D-01      1.0000000
D    1   1.00
      1.4000000              1.0000000
D    1   1.00
      0.22301361948          1.0000000
****
S     0
S    5   1.00
   9184.9303010             -0.22294387756D-02
   1381.5105503             -0.16683029937D-01
    313.87147580            -0.75262436116D-01
     88.053870623           -0.19376827038
     27.039914905           -0.17718020803
S    3   1.00
     45.648731303           -0.10736062573
      4.9664522326           0.65066293018
      2.0116242047           0.59712155354
S    1   1.00
      0.35661077013          1.0000000
S    1   1.00
      0.13507221477          1.0000000
S    1   1.00
      0.44999823506D-01      1.0000000
P    5   1.00
    261.98233439            -0.92729929822D-02
     61.306894736           -0.66547669241D-01
     19.103729887           -0.24828595903
      6.6567720378          -0.48703847402
      2.3959635161          -0.39337850312
P    1   1.00
      0.61776161679          1.0000000
P    1   1.00
      0.16993376871          1.0000000
P    1   1.00
      0.41706793676D-01      1.0000000
D    1   1.00
      0.5500000              1.0000000
D    1   1.00
      0.10172853717          1.0000000
****

