%NProcShared=8
%Mem=30GB
%Chk=opt.chk
#p PBEPBE/6-31+G(d,p) Opt=(CalcFC,Tight,MaxCycles=250) EmpiricalDispersion=GD3BJ SCF=(XQC,Tight) Integral=UltraFine NoSymm

A400_PFPeA_head_tangential__unsolvated | opt

0 1
C  -0.5566950646 -1.3439910110  0.4592976295
N   0.0000000000  0.0000000000  0.0000000000
C  -0.9594641671  1.0996553712  0.4304987401
C   1.3485241254  0.2247909877  0.6679034873
C   0.1420150732 -0.0422755299 -1.5364310404
C   0.6810559772  1.1994261314 -2.2010522821
C  -0.1877259808  2.2128930114 -2.6370155881
C   0.3139375804  3.3661586663 -3.2424136725
C   1.6859302837  3.5180772901 -3.4257345329
C   2.5587425457  2.5152445016 -3.0115164457
C   2.0609560473  1.3605097366 -2.4057193018
H   0.1424293286 -2.1301424508  0.1588556904
H  -0.6614552734 -1.3248548526  1.5483212912
H  -1.5317440727 -1.4955319577 -0.0133445064
H  -0.5187469867  2.0723055426  0.1973944615
H  -1.9064488236  0.9618991836 -0.0994134768
H  -1.1149952178  1.0177810668  1.5108153356
H   1.2161652754  0.1341287521  1.7506033912
H   2.0463507845 -0.5364429500  0.3071754486
H   1.7059899172  1.2289998720  0.4262394257
H   0.7881721381 -0.8983901726 -1.7707046177
H  -0.8519639239 -0.2766833010 -1.9394119370
H  -1.2658178352  2.1163836549 -2.5238209405
H  -0.3644110007  4.1464237169 -3.5824130181
H   2.0750360572  4.4147647772 -3.9041382234
H   3.6288412348  2.6327438993 -3.1716727930
H   2.7673178724  0.5875890280 -2.1089783858
O  -2.8199056720 -0.2250000000  0.9987527227
C  -3.6373827570  0.7017700492  1.2604299102
O  -4.1711530400  1.5182768903  0.4504272207
C  -4.0230869926  0.9148276593  2.7262767457
F  -5.3722491922  1.0927698642  2.8456121034
F  -3.7354419157 -0.1926920442  3.4762725582
C  -3.2826099175  2.1161616785  3.2489224782
F  -1.9359008351  1.8540591807  3.3098218614
F  -3.6408432359  2.2700862819  4.5765515109
C  -3.4806682833  3.4609770451  2.5726038943
F  -2.7731527957  4.3926352051  3.3207554311
F  -2.8900374368  3.5331383152  1.3520966771
C  -4.9296640110  3.9211634632  2.5409003097
F  -5.0136870790  5.2023699471  2.0779432143
F  -5.4658265787  3.9531040879  3.7912752864
F  -5.7684181583  3.1954679384  1.7827316330

