%NProcShared=8
%Mem=30GB
%Chk=opt.chk
#p PBEPBE/Gen 5D 7F SCF=(XQC,Tight) Integral=UltraFine NoSymm EmpiricalDispersion=GD3BJ SCRF=(SMD,Solvent=Water) Opt=(Cartesian,CalcFC,Tight,MaxCycles=300)

free_PFOA_c2__water | opt | def2-SVPD

-1 1
F 0.1063688831 0.3334905260 -1.6739918365
F -1.0434055445 -1.4701183178 -1.6988899882
F 1.4710527768 -2.0386293854 -1.5565488387
F 0.3976053069 -2.6154430211 0.2371987586
F -0.5941431023 0.2197934932 1.3724300378
F -1.8457869227 -1.3926996306 0.7360448169
F 2.8754737834 -2.0305952099 0.6873515829
F 1.5931115120 -0.6244270668 1.6926878172
F -3.0028260885 0.1279241981 -1.2239245109
F -1.7432636958 1.8331539676 -0.7662654115
F 3.3403751671 -0.2544953065 -1.3997160600
F 4.0323311190 0.2847197910 0.6014204256
F -4.1856571904 1.9109791330 0.4992465630
F -2.5783426985 1.7039048486 1.9454236902
F -3.8264640723 -0.0069441857 1.4456604862
O 1.0331869272 1.5462397398 0.1751476197
O 2.8805169759 2.4419403411 -0.7942764891
C -0.2840158039 -0.6703755064 -0.8555286515
C 0.9037580948 -1.5076580613 -0.4162511983
C -1.2180321073 -0.2573690672 0.2763343522
C 2.0330189446 -0.9481116551 0.4462266476
C -2.2709748748 0.7073884143 -0.2207712483
C 2.9018885080 0.1305926259 -0.1630143469
C -3.1970241480 1.0753805163 0.9213914901
C 2.2212482503 1.5013588188 -0.2673857080

C     0
S    5   1.00
   1238.4016938              0.54568832082D-02
    186.29004992             0.40638409211D-01
     42.251176346            0.18025593888
     11.676557932            0.46315121755
      3.5930506482           0.44087173314
S    1   1.00
      0.40245147363          1.0000000
S    1   1.00
      0.13090182668          1.0000000
S    1   1.00
      0.67053540256D-01      1.0000000
P    3   1.00
      9.4680970621           0.38387871728D-01
      2.0103545142           0.21117025112
      0.54771004707          0.51328172114
P    1   1.00
      0.15268613795          1.0000000
D    1   1.00
      0.8000000              1.0000000
D    1   1.00
      0.11713185140          1.0000000
****
O     0
S    5   1.00
   2266.1767785             -0.53431809926D-02
    340.87010191            -0.39890039230D-01
     77.363135167           -0.17853911985
     21.479644940           -0.46427684959
      6.6589433124          -0.44309745172
S    1   1.00
      0.80975975668          1.0000000
S    1   1.00
      0.25530772234          1.0000000
S    1   1.00
      0.76572453250D-01      1.0000000
P    3   1.00
     17.721504317            0.43394573193D-01
      3.8635505440           0.23094120765
      1.0480920883           0.51375311064
P    1   1.00
      0.27641544411          1.0000000
P    1   1.00
      0.69002276350D-01      1.0000000
D    1   1.00
      1.2000000              1.0000000
D    1   1.00
      0.17992024323          1.0000000
****
F     0
S    5   1.00
   2894.8325990             -0.53408255515D-02
    435.41939120            -0.39904258866D-01
     98.843328866           -0.17912768038
     27.485198001           -0.46758090825
      8.5405498171          -0.44653131020
S    1   1.00
      1.0654578038           1.0000000
S    1   1.00
      0.33247346748          1.0000000
S    1   1.00
      0.98097752264D-01      1.0000000
P    3   1.00
     22.696633924           -0.45212874436D-01
      4.9872339257          -0.23754317067
      1.3491613954          -0.51287353587
P    1   1.00
      0.34829881977          1.0000000
P    1   1.00
      0.83372148304D-01      1.0000000
D    1   1.00
      1.4000000              1.0000000
D    1   1.00
      0.22301361948          1.0000000
****

