%NProcShared=8
%Mem=30GB
%Chk=opt.chk
#p PBEPBE/Gen 5D 7F SCF=(XQC,Tight) Integral=UltraFine NoSymm EmpiricalDispersion=GD3BJ SCRF=(SMD,Solvent=Water) Opt=(Cartesian,CalcFC,Tight,MaxCycles=300)

free_PFNA_c2__water | opt | def2-SVPD

-1 1
O -5.6863301407 0.6483350498 -0.3061989797
C -4.5726120867 0.2235170187 -0.7361239713
O -4.0699995847 0.4079981312 -1.8858476538
C -3.7267790622 -0.6152889659 0.2405874036
F -3.9581923961 -0.2205354117 1.5312998989
F -4.1541712650 -1.9175738841 0.1710715721
C -2.2511865241 -0.5471105492 -0.0616951766
F -1.9372631944 -1.0388435798 -1.2901496903
F -1.6095690032 -1.4047480645 0.8099125152
C -1.6487959733 0.8327001413 0.1483836641
F -1.6390834019 1.1237666236 1.4882489634
F -2.3894939950 1.8272823864 -0.4096662950
C -0.2277302855 0.9631823533 -0.3842616345
F -0.2075620473 0.8818553946 -1.7444250175
F 0.2070246695 2.2354109467 -0.1021861271
C 0.7706317228 -0.0257666552 0.1922007021
F 0.6940552123 -0.0356407796 1.5505548137
F 0.4843066373 -1.2892907907 -0.2164764675
C 2.1896873642 0.3182913423 -0.2319683913
F 2.5275996297 1.5630420578 0.2054040610
F 2.2835738060 0.3617629503 -1.5886903107
C 3.1750790769 -0.6897977643 0.3148325191
F 2.8813699415 -1.9473821968 -0.1213861754
F 3.1092632071 -0.7419572337 1.6762959223
C 4.5797503886 -0.3144605429 -0.1153343421
F 4.7279255271 -0.2987812387 -1.4604470264
F 5.4911536280 -1.2025275261 0.3616482487
F 4.9573481493 0.9025607872 0.3419814428

C     0
S    5   1.00
   1238.4016938              0.54568832082D-02
    186.29004992             0.40638409211D-01
     42.251176346            0.18025593888
     11.676557932            0.46315121755
      3.5930506482           0.44087173314
S    1   1.00
      0.40245147363          1.0000000
S    1   1.00
      0.13090182668          1.0000000
S    1   1.00
      0.67053540256D-01      1.0000000
P    3   1.00
      9.4680970621           0.38387871728D-01
      2.0103545142           0.21117025112
      0.54771004707          0.51328172114
P    1   1.00
      0.15268613795          1.0000000
D    1   1.00
      0.8000000              1.0000000
D    1   1.00
      0.11713185140          1.0000000
****
O     0
S    5   1.00
   2266.1767785             -0.53431809926D-02
    340.87010191            -0.39890039230D-01
     77.363135167           -0.17853911985
     21.479644940           -0.46427684959
      6.6589433124          -0.44309745172
S    1   1.00
      0.80975975668          1.0000000
S    1   1.00
      0.25530772234          1.0000000
S    1   1.00
      0.76572453250D-01      1.0000000
P    3   1.00
     17.721504317            0.43394573193D-01
      3.8635505440           0.23094120765
      1.0480920883           0.51375311064
P    1   1.00
      0.27641544411          1.0000000
P    1   1.00
      0.69002276350D-01      1.0000000
D    1   1.00
      1.2000000              1.0000000
D    1   1.00
      0.17992024323          1.0000000
****
F     0
S    5   1.00
   2894.8325990             -0.53408255515D-02
    435.41939120            -0.39904258866D-01
     98.843328866           -0.17912768038
     27.485198001           -0.46758090825
      8.5405498171          -0.44653131020
S    1   1.00
      1.0654578038           1.0000000
S    1   1.00
      0.33247346748          1.0000000
S    1   1.00
      0.98097752264D-01      1.0000000
P    3   1.00
     22.696633924           -0.45212874436D-01
      4.9872339257          -0.23754317067
      1.3491613954          -0.51287353587
P    1   1.00
      0.34829881977          1.0000000
P    1   1.00
      0.83372148304D-01      1.0000000
D    1   1.00
      1.4000000              1.0000000
D    1   1.00
      0.22301361948          1.0000000
****

