%NProcShared=8
%Mem=30GB
%Chk=opt.chk
#p PBEPBE/Gen 5D 7F SCF=(XQC,Tight) Integral=UltraFine NoSymm EmpiricalDispersion=GD3BJ Opt=(Cartesian,CalcFC,Tight,MaxCycles=300)

free_PFOS_c1__unsolvated | opt | def2-SVPD

-1 1
O 4.3490236809 1.1209087347 1.0727979753
S 4.0681260802 0.4171601381 -0.1768170032
O 3.3266089911 1.2167178132 -1.1514097096
O 5.2290657250 -0.2697238442 -0.7459421645
C 2.9148032373 -0.9062710609 0.2701891651
F 3.5440840376 -1.9489577128 0.9187876803
F 2.3387819418 -1.4960946811 -0.8315432842
C 1.8100714933 -0.3946593400 1.1687346452
F 0.9960106647 -1.4713013642 1.4759896869
F 2.2935641522 -0.0297603585 2.3967264765
C 0.8865578090 0.7006771380 0.6536447939
F 1.5344645291 1.8885876620 0.5446383933
F -0.0473085543 0.9482459779 1.6387740306
C 0.0929381147 0.4215168345 -0.6223382048
F 0.9230334016 0.2491755527 -1.6836517838
F -0.6409660441 1.5392646329 -0.9319888340
C -0.8843797572 -0.7500713004 -0.6042920436
F -0.1918433243 -1.9175873010 -0.4586054592
F -1.4562384821 -0.8625904528 -1.8461794560
C -2.0183107795 -0.7234631169 0.4119847593
F -1.4979506877 -0.8538442750 1.6682727239
F -2.7621765054 -1.8669841915 0.2414028959
C -2.9705063656 0.4577617101 0.3939228169
F -3.8934281277 0.2764837011 1.3967453079
F -2.3230886737 1.6074965914 0.7221705332
C -3.7122456460 0.6148076756 -0.9216697943
F -2.8973274813 0.9533388253 -1.9421852042
F -4.3621924869 -0.5151620649 -1.2822916310
F -4.6491709427 1.5943280765 -0.8407118373

C     0
S    5   1.00
   1238.4016938              0.54568832082D-02
    186.29004992             0.40638409211D-01
     42.251176346            0.18025593888
     11.676557932            0.46315121755
      3.5930506482           0.44087173314
S    1   1.00
      0.40245147363          1.0000000
S    1   1.00
      0.13090182668          1.0000000
S    1   1.00
      0.67053540256D-01      1.0000000
P    3   1.00
      9.4680970621           0.38387871728D-01
      2.0103545142           0.21117025112
      0.54771004707          0.51328172114
P    1   1.00
      0.15268613795          1.0000000
D    1   1.00
      0.8000000              1.0000000
D    1   1.00
      0.11713185140          1.0000000
****
O     0
S    5   1.00
   2266.1767785             -0.53431809926D-02
    340.87010191            -0.39890039230D-01
     77.363135167           -0.17853911985
     21.479644940           -0.46427684959
      6.6589433124          -0.44309745172
S    1   1.00
      0.80975975668          1.0000000
S    1   1.00
      0.25530772234          1.0000000
S    1   1.00
      0.76572453250D-01      1.0000000
P    3   1.00
     17.721504317            0.43394573193D-01
      3.8635505440           0.23094120765
      1.0480920883           0.51375311064
P    1   1.00
      0.27641544411          1.0000000
P    1   1.00
      0.69002276350D-01      1.0000000
D    1   1.00
      1.2000000              1.0000000
D    1   1.00
      0.17992024323          1.0000000
****
F     0
S    5   1.00
   2894.8325990             -0.53408255515D-02
    435.41939120            -0.39904258866D-01
     98.843328866           -0.17912768038
     27.485198001           -0.46758090825
      8.5405498171          -0.44653131020
S    1   1.00
      1.0654578038           1.0000000
S    1   1.00
      0.33247346748          1.0000000
S    1   1.00
      0.98097752264D-01      1.0000000
P    3   1.00
     22.696633924           -0.45212874436D-01
      4.9872339257          -0.23754317067
      1.3491613954          -0.51287353587
P    1   1.00
      0.34829881977          1.0000000
P    1   1.00
      0.83372148304D-01      1.0000000
D    1   1.00
      1.4000000              1.0000000
D    1   1.00
      0.22301361948          1.0000000
****
S     0
S    5   1.00
   9184.9303010             -0.22294387756D-02
   1381.5105503             -0.16683029937D-01
    313.87147580            -0.75262436116D-01
     88.053870623           -0.19376827038
     27.039914905           -0.17718020803
S    3   1.00
     45.648731303           -0.10736062573
      4.9664522326           0.65066293018
      2.0116242047           0.59712155354
S    1   1.00
      0.35661077013          1.0000000
S    1   1.00
      0.13507221477          1.0000000
S    1   1.00
      0.44999823506D-01      1.0000000
P    5   1.00
    261.98233439            -0.92729929822D-02
     61.306894736           -0.66547669241D-01
     19.103729887           -0.24828595903
      6.6567720378          -0.48703847402
      2.3959635161          -0.39337850312
P    1   1.00
      0.61776161679          1.0000000
P    1   1.00
      0.16993376871          1.0000000
P    1   1.00
      0.41706793676D-01      1.0000000
D    1   1.00
      0.5500000              1.0000000
D    1   1.00
      0.10172853717          1.0000000
****

