%NProcShared=8
%Mem=48GB
%Chk=opt.chk
#p PBEPBE/6-31+G(d,p) Opt=(CalcFC,Tight,MaxCycles=250) EmpiricalDispersion=GD3BJ SCF=(XQC,Tight) Integral=UltraFine NoSymm SCRF=(SMD,Solvent=Water)

PC4P_PFOA_head_tangential__water | opt

0 1
C  -2.4803165588 -0.1262722467 -2.6425955899
C  -3.6554134510  0.4212644288 -3.1610915204
C  -4.8006685329  0.4947495810 -2.3712892532
C  -4.7711836837  0.0222734135 -1.0614782168
C  -3.5970782131 -0.5257779926 -0.5428264851
C  -2.4399118121 -0.6087545846 -1.3293805072
C  -1.1684575638 -1.1760158796 -0.7506565818
P   0.0000000000  0.0000000000  0.0000000000
C   0.7791823682  1.0158787735 -1.2244774647
C   1.1340719049  2.3419986031 -0.9455797197
C   1.7806717770  3.1303805743 -1.8993051085
C   2.0973775511  2.5983493094 -3.1452386102
C   1.7765341994  1.2747888964 -3.4312997076
C   1.1304126360  0.4890104954 -2.4742004727
C  -0.8800232246  0.8806418835  1.2615408385
C  -0.8770189102  0.4691714674  2.5990967813
C  -1.5992867345  1.1690643475  3.5694837639
C  -2.3526537112  2.2835026314  3.2124737293
C  -2.3886187842  2.6931892290  1.8837806122
C  -1.6619545237  1.9936907223  0.9187756551
C   1.2685391618 -1.1194712217  0.6620392690
C   2.6232909025 -0.5063739747  1.0141626245
C   2.5506789976  0.5159237255  2.1449030088
C   3.9234165005  1.1254014778  2.4455039726
P   3.8225764115  2.3892987163  3.7948526212
C   5.5069990052  3.0861349114  3.9017934238
C   5.6923919344  4.3210531509  4.5487988136
C   6.9621528227  4.8919399402  4.6719576771
C   8.0741402013  4.2311589734  4.1606301442
C   7.9154430376  2.9990115259  3.5330818297
C   6.6433542126  2.4290899176  3.4101008752
C   2.9058129842  3.7178919117  2.9341735108
C   3.4554533733  4.4728691423  1.8878142699
C   2.7051355824  5.4645120348  1.2499820792
C   1.3900729995  5.7048892797  1.6395583497
C   0.8259485608  4.9566708543  2.6691880462
C   1.5791268431  3.9720457265  3.3135535539
H  -1.5982209332 -0.1686825770 -3.2752238568
H  -3.6742802571  0.7944605291 -4.1815516662
H  -5.7135738206  0.9239984879 -2.7746311306
H  -5.6595950422  0.0859632697 -0.4391164985
H  -3.5866316439 -0.8741388801  0.4879388536
H  -1.4334482224 -1.9069953151  0.0244052452
H  -0.6527616259 -1.7598252717 -1.5218852298
H   0.9212852890  2.7751747609  0.0294365984
H   2.0410774758  4.1580294262 -1.6614853727
H   2.6019067692  3.2109452394 -3.8870417038
H   2.0351012167  0.8501861090 -4.3976275799
H   0.9121653257 -0.5476697007 -2.7136334969
H  -0.3124944829 -0.4041248783  2.9089040695
H  -1.5761301739  0.8384178614  4.6045530732
H  -2.9177850353  2.8248690438  3.9658080396
H  -2.9865605835  3.5519489830  1.5915346906
H  -1.7210281409  2.3149943659 -0.1197290532
H   0.8662115227 -1.6706446591  1.5177194393
H   1.4506892073 -1.8722886001 -0.1152087931
H   3.3067552442 -1.3142189616  1.3029629135
H   3.0540072013 -0.0361018705  0.1233271162
H   2.1521585249  0.0341819061  3.0462783824
H   1.8529755757  1.3090749956  1.8658520868
H   4.5961967120  0.3216742459  2.7647068949
H   4.3444329515  1.5670891244  1.5352721611
H   4.8405102846  4.8578391904  4.9635166955
H   7.0777772064  5.8507506166  5.1701850399
H   9.0626337771  4.6718592105  4.2568746140
H   8.7830008882  2.4743137523  3.1411953029
H   6.5692948540  1.4603864058  2.9256465343
H   4.4759909403  4.2991128695  1.5541993213
H   3.1493887657  6.0442753162  0.4454448416
H   0.8036835194  6.4704639502  1.1389978253
H  -0.2037282331  5.1306841941  2.9698544330
H   1.1105271339  3.3938950579  4.1074794412
F  -4.6422675048 -0.7957855278  7.0087370996
F  -5.1182409750 -1.2191955821  4.9512625867
F  -2.3849893745 -0.9689502736  5.5928978916
F  -2.5957656785 -2.5345115841  7.0454089543
F  -6.7347968855 -2.4209511517  6.6640379405
F  -5.5815070061 -3.8399367046  5.5114508827
F  -1.4013732919 -3.4388394523  4.8636970900
F  -3.3123425050 -4.3618394069  5.2465603481
F  -6.0483040691 -4.6396734008  7.9992492831
F  -3.9316989995 -4.3203557605  7.6833722606
F  -4.5414730090 -2.8674710117  3.3003289050
F  -2.8585630467 -4.0565907925  2.6022048916
F  -6.2635371939 -2.0910037171  9.1925768673
F  -4.1085830450 -1.8389709956  9.0008176343
F  -4.9054378098 -3.4860541834  10.1574803307
O  -1.3744885727 -1.8506944444  2.2908974741
O  -3.1282139414 -0.6294427628  3.0646905488
C  -4.5595218565 -1.7812518023  6.0555017505
C  -3.0867363957 -2.1111897030  5.8257495429
C  -5.4615981529 -2.9216734231  6.5161853297
C  -2.7466322769 -3.1874487949  4.7989428507
C  -5.1102234683 -3.6519004686  7.8003917820
C  -3.1826659792 -2.9748769005  3.3740614911
C  -5.0975361655 -2.7560758819  9.0264203875
C  -2.5013029866 -1.7086265539  2.8452133602

