%NProcShared=8
%Mem=30GB
%Chk=opt.chk
#p PBEPBE/Gen 5D 7F SCF=(XQC,Tight) Integral=UltraFine NoSymm EmpiricalDispersion=GD3BJ SCRF=(SMD,Solvent=Water) Opt=(Cartesian,CalcFC,Tight,MaxCycles=300)

A400_F_c1_p1__water | opt | def2-SVPD

0 1
C -1.2909899813 1.3278452508 1.0111878821
N -1.5542763097 0.0751864648 0.1885889629
C -2.8856447165 -0.5276930849 0.6258163843
C -1.6486258899 0.4546269959 -1.2818757196
C -0.4531874870 -0.9816691277 0.4193181400
C 0.9539336778 -0.5854788709 0.0489799948
C 1.4496235825 -0.8274872611 -1.2424086109
C 2.7487557317 -0.4504591359 -1.5863546547
C 3.5694045598 0.1652992999 -0.6448512772
C 3.0966064701 0.3988587881 0.6439326759
C 1.7980750335 0.0232974198 0.9917303300
H -0.3922858916 1.8226711898 0.6342298675
H -1.1674308783 1.0365478640 2.0582999085
H -2.1499744946 1.9975784739 0.9035750602
H -3.6740952936 0.2140757390 0.4663229963
H -2.8174180859 -0.7872159018 1.6865090052
H -3.0768461849 -1.4206210024 0.0231568023
H -0.7370253448 0.9809570625 -1.5761202491
H -1.7799309344 -0.4589801844 -1.8689411270
H -2.5112044460 1.1155894826 -1.4125074298
H -0.4941009073 -1.2539228262 1.4821155409
H -0.7482537758 -1.8744665893 -0.1474118434
H 0.8391623699 -1.3223121918 -1.9953326202
H 3.1292028186 -0.6445644280 -2.5874307663
H 4.5844072825 0.4524440866 -0.9125061746
H 3.7479896656 0.8662759206 1.3799962755
H 1.4641294297 0.2036165660 2.0117175710
F -3.0772734293 0.9322975759 2.3762453155

H     0
S    3   1.00
     13.0107010              0.19682158D-01
      1.9622572              0.13796524
      0.44453796             0.47831935
S    1   1.00
      0.12194962             1.0000000
P    1   1.00
      0.8000000              1.0000000
P    1   1.00
      0.11704099050          1.0000000
****
C     0
S    5   1.00
   1238.4016938              0.54568832082D-02
    186.29004992             0.40638409211D-01
     42.251176346            0.18025593888
     11.676557932            0.46315121755
      3.5930506482           0.44087173314
S    1   1.00
      0.40245147363          1.0000000
S    1   1.00
      0.13090182668          1.0000000
S    1   1.00
      0.67053540256D-01      1.0000000
P    3   1.00
      9.4680970621           0.38387871728D-01
      2.0103545142           0.21117025112
      0.54771004707          0.51328172114
P    1   1.00
      0.15268613795          1.0000000
D    1   1.00
      0.8000000              1.0000000
D    1   1.00
      0.11713185140          1.0000000
****
N     0
S    5   1.00
   1712.8415853             -0.53934125305D-02
    257.64812677            -0.40221581118D-01
     58.458245853           -0.17931144990
     16.198367905           -0.46376317823
      5.0052600809          -0.44171422662
S    1   1.00
      0.58731856571          1.0000000
S    1   1.00
      0.18764592253          1.0000000
S    1   1.00
      0.96171241529D-01      1.0000000
P    3   1.00
     13.571470233           -0.40072398852D-01
      2.9257372874          -0.21807045028
      0.79927750754         -0.51294466049
P    1   1.00
      0.21954348034          1.0000000
D    1   1.00
      1.0000000              1.0000000
D    1   1.00
      0.16697708112          1.0000000
****
F     0
S    5   1.00
   2894.8325990             -0.53408255515D-02
    435.41939120            -0.39904258866D-01
     98.843328866           -0.17912768038
     27.485198001           -0.46758090825
      8.5405498171          -0.44653131020
S    1   1.00
      1.0654578038           1.0000000
S    1   1.00
      0.33247346748          1.0000000
S    1   1.00
      0.98097752264D-01      1.0000000
P    3   1.00
     22.696633924           -0.45212874436D-01
      4.9872339257          -0.23754317067
      1.3491613954          -0.51287353587
P    1   1.00
      0.34829881977          1.0000000
P    1   1.00
      0.83372148304D-01      1.0000000
D    1   1.00
      1.4000000              1.0000000
D    1   1.00
      0.22301361948          1.0000000
****

