%NProcShared=8
%Mem=30GB
%Chk=opt.chk
#p PBEPBE/6-31+G(d,p) Opt=(CalcFC,Tight,MaxCycles=250) EmpiricalDispersion=GD3BJ SCF=(XQC,Tight) Integral=UltraFine NoSymm SCRF=(SMD,Solvent=Water)

free_PFNA__water | opt

-1 1
O  -3.9707104302  2.5487737619  0.3835685491
C  -2.9479336571  1.9191855114  0.7762702616
O  -1.7336480362  2.2700706049  0.6665822637
C  -3.1655461851  0.5506529340  1.4302908198
F  -4.4587339196  0.4101298124  1.8548159826
F  -2.3991253190  0.4319039739  2.5544257236
C  -2.8172857116 -0.5176421573  0.4267801713
F  -3.7124857925 -0.5022385889 -0.6144042017
F  -3.0421100149 -1.7423611038  1.0266157749
C  -1.4073165443 -0.5509201245 -0.1572538641
F  -1.3389304760 -1.6664783988 -0.9711328919
F  -1.1896272548  0.4742642382 -1.0129667103
C  -0.2923742932 -0.6820091512  0.8687293186
F  -0.6067648054 -1.7048177608  1.7316605946
F  -0.1590210153  0.4089254185  1.6582443214
C   1.0669557036 -1.0151590120  0.2675541367
F   1.0245152291 -2.2367036254 -0.3435775431
F   1.9472731930 -1.1837552547  1.3083363596
C   1.6348006548  0.0112399415 -0.6952839827
F   0.8988592229  0.0418469664 -1.8365730359
F   1.5814200275  1.2540796396 -0.1577500087
C   3.0664337907 -0.3247736082 -1.0500538778
F   3.8598886758 -0.3358864166  0.0600587802
F   3.1519200915 -1.5817324354 -1.5766190312
C   3.6027219475  0.6843687786 -2.0469182603
F   2.9083205648  0.6947327409 -3.2081011836
F   4.8911252689  0.3963424855 -2.3773467620
F   3.6073790852  1.9479608298 -1.5658193162

