%NProcShared=8
%Mem=48GB
%Chk=opt.chk
#p PBEPBE/Gen 5D 7F SCF=(XQC,Tight) Integral=UltraFine NoSymm EmpiricalDispersion=GD3BJ SCRF=(SMD,Solvent=Water) Opt=(Cartesian,CalcFC,Tight,MaxCycles=300)

PCy3_Cl_c1_p1__water | opt | def2-SVPD

0 1
C -1.2393273515 -2.4705716776 0.6076825946
C -1.3636622742 -3.4365360185 1.7839473596
C -2.0917909678 -2.7866598731 2.9541977646
C -1.4270041920 -1.4782343502 3.3624250367
C -1.2629297151 -0.5245260782 2.1802436925
C -0.5173168955 -1.1714541855 1.0033842969
P -0.1578009942 -0.0349006803 -0.3434813371
C 0.5977720974 -0.9128717057 -1.7104426679
C 2.0090263024 -1.4241259983 -1.5710446765
C 3.0817907425 -0.6718029344 -2.0726498454
C 4.3950449497 -1.1249526272 -1.9369772921
C 4.6515095774 -2.3359982866 -1.2992752466
C 3.5949845234 -3.0935362839 -0.7989165247
C 2.2809040827 -2.6403860684 -0.9341813045
C -1.6493752981 0.7562989927 -0.9824822590
C -2.7877128763 -0.2061452072 -1.3629914402
C -3.7987808058 0.3691481810 -2.3604984493
C -3.9295850465 1.8793005204 -2.2267474844
C -2.5950295118 2.5831837147 -2.4725087369
C -1.3846294950 1.6985294817 -2.1682605454
C 0.9954813546 1.2536070970 0.2067280392
C 2.0865648555 0.7457495208 1.1668338134
C 3.1324652833 1.8148931253 1.4688364074
C 2.4895886307 3.0692483098 2.0467709277
C 1.3827865286 3.5921725505 1.1402410565
C 0.3504095912 2.5119843625 0.8174784598
H -2.2438331671 -2.2539809282 0.2383309027
H -0.7163142532 -2.9720688495 -0.2092927688
H -0.3651022743 -3.7601847445 2.1020175893
H -1.9056655022 -4.3348384178 1.4673913523
H -3.1347621736 -2.5938616370 2.6741523626
H -2.1116268118 -3.4744592177 3.8069144780
H -0.4411081482 -1.6909557966 3.7942808439
H -2.0189914912 -0.9932035526 4.1468225468
H -2.2479531589 -0.1766921315 1.8480535742
H -0.7239825501 0.3578743441 2.5299988465
H 0.4669936282 -1.4808804409 1.3770353186
H -0.0449684419 -1.7505048433 -2.0040983181
H 0.5833769327 -0.2472099995 -2.5810245228
H 2.9007114172 0.2790510551 -2.5689251462
H 5.2169792189 -0.5311738180 -2.3276789863
H 5.6733464612 -2.6895475291 -1.1925208183
H 3.7930444801 -4.0395000128 -0.3018510593
H 1.4755485713 -3.2505651825 -0.5377472565
H -2.0246375479 1.3688503555 -0.1526411565
H -3.3246703145 -0.4811076757 -0.4478301406
H -2.3831646140 -1.1341313799 -1.7804014537
H -4.7729406226 -0.1111056818 -2.2139532807
H -3.4821317000 0.1233686133 -3.3820723103
H -4.6831713368 2.2611077863 -2.9246501232
H -4.2880136751 2.1209318611 -1.2181407652
H -2.5354086619 2.9132252586 -3.5166497822
H -2.5560400916 3.4921686693 -1.8601796175
H -1.1485449548 1.1032738339 -3.0591239354
H -0.5073571502 2.3292337474 -1.9988379031
H 1.4946420571 1.5826530884 -0.7143343713
H 2.5872684704 -0.1333997211 0.7579935489
H 1.6304795318 0.4226245366 2.1095804872
H 3.6753631134 2.0671884224 0.5497518170
H 3.8692212271 1.4199590646 2.1774214584
H 3.2506457383 3.8446983712 2.1883775664
H 2.0741632831 2.8439733246 3.0367530288
H 0.8862708372 4.4434233627 1.6197506194
H 1.8214886167 3.9648631199 0.2063070606
H -0.3844848123 2.9443130721 0.1346044953
H -0.1980532265 2.2551757917 1.7281041799
Cl 1.1164321718 2.0150993197 -3.0144043683

H     0
S    3   1.00
     13.0107010              0.19682158D-01
      1.9622572              0.13796524
      0.44453796             0.47831935
S    1   1.00
      0.12194962             1.0000000
P    1   1.00
      0.8000000              1.0000000
P    1   1.00
      0.11704099050          1.0000000
****
C     0
S    5   1.00
   1238.4016938              0.54568832082D-02
    186.29004992             0.40638409211D-01
     42.251176346            0.18025593888
     11.676557932            0.46315121755
      3.5930506482           0.44087173314
S    1   1.00
      0.40245147363          1.0000000
S    1   1.00
      0.13090182668          1.0000000
S    1   1.00
      0.67053540256D-01      1.0000000
P    3   1.00
      9.4680970621           0.38387871728D-01
      2.0103545142           0.21117025112
      0.54771004707          0.51328172114
P    1   1.00
      0.15268613795          1.0000000
D    1   1.00
      0.8000000              1.0000000
D    1   1.00
      0.11713185140          1.0000000
****
P     0
S    5   1.00
   8002.4795106              0.57503489302D-02
   1203.6813590              0.43007628959D-01
    273.44227031             0.19363986252
     76.655541517            0.49651693399
     23.516927435            0.44983262479
S    3   1.00
     39.791683439            0.95188129789D-01
      4.2770343323          -0.57649840368
      1.6940256888          -0.54239583865
S    1   1.00
      0.27567674644          1.0000000
S    1   1.00
      0.10495590099          1.0000000
S    1   1.00
      0.64309734755D-01      1.0000000
P    5   1.00
    219.50755823             0.92100565257D-02
     51.274155030            0.65409765745D-01
     15.921595892            0.24033730279
      5.5069913481           0.46318321788
      1.9537719426           0.37392563382
P    1   1.00
      0.47803397932          1.0000000
P    1   1.00
      0.13657952621          1.0000000
D    1   1.00
      0.4500000              1.0000000
D    1   1.00
      0.99587311089D-01      1.0000000
****
Cl     0
S    5   1.00
  10449.8275660              0.19708362484D-02
   1571.7365221              0.14754727977D-01
    357.12065523             0.66679112875D-01
    100.25185935             0.17228924084
     30.812727554            0.15883786100
S    3   1.00
     51.923789434           -0.10009298909
      5.7045760975           0.60841752753
      2.3508376809           0.54352153355
S    1   1.00
      0.44605124672          1.0000000
S    1   1.00
      0.16848856190          1.0000000
S    1   1.00
      0.55344229413D-01      1.0000000
P    5   1.00
    307.66790569            -0.87801484118D-02
     72.102015515           -0.63563355471D-01
     22.532680262           -0.24016428276
      7.8991765444          -0.47798866557
      2.8767268321          -0.38515850005
P    1   1.00
      0.77459363955          1.0000000
P    1   1.00
      0.21037699698          1.0000000
P    1   1.00
      0.50046271086D-01      1.0000000
D    1   1.00
      0.6500000              1.0000000
D    1   1.00
      0.12284803390          1.0000000
****

