%NProcShared=8
%Mem=30GB
%Chk=opt.chk
#p PBEPBE/Gen 5D 7F SCF=(XQC,Tight) Integral=UltraFine NoSymm EmpiricalDispersion=GD3BJ Opt=(Cartesian,CalcFC,Tight,MaxCycles=300)

free_PFOA_c1__unsolvated | opt | def2-SVPD

-1 1
F 0.7881390120 0.3249050411 -1.6882718417
F -0.6011526163 1.5213669212 -0.5647376316
F -0.5460582052 -0.0991125314 1.5626662049
F 0.7159723137 -1.5513818611 0.6196869907
F -1.7142323817 -0.1158970526 -2.3920105667
F -0.7849743929 -1.8747544399 -1.5298532868
F 1.1461684928 1.8797073755 1.3887245096
F 1.9441013991 0.1402931987 2.4029511279
F -3.3805196638 -1.6410748507 -0.9899246600
F -2.1793234674 -1.5487292180 0.8059225336
F 3.8207674316 1.4860833489 1.0063655078
F 2.6458643627 1.4475685451 -0.8205301664
F -3.5281392557 1.1763288191 -1.0561217072
F -4.3443069288 0.2198193326 0.7164867264
F -2.4506339073 1.2640425213 0.8312167379
O 4.4241507739 -1.0583902372 0.6389288493
O 2.7355930562 -1.2794189827 -0.8662323006
C -0.1338340786 0.2435811591 -0.6964789498
C 0.4621002469 -0.2218679569 0.6221254816
C -1.2713859738 -0.6393946611 -1.1976085136
C 1.6304769454 0.6068558238 1.1481418750
C -2.4870721998 -0.8397704740 -0.3137968798
C 2.8865277715 0.7505364654 0.3286387058
C -3.1897656615 0.4586139984 0.0400490897
C 3.4115369271 -0.6499102847 0.0036621641

C     0
S    5   1.00
   1238.4016938              0.54568832082D-02
    186.29004992             0.40638409211D-01
     42.251176346            0.18025593888
     11.676557932            0.46315121755
      3.5930506482           0.44087173314
S    1   1.00
      0.40245147363          1.0000000
S    1   1.00
      0.13090182668          1.0000000
S    1   1.00
      0.67053540256D-01      1.0000000
P    3   1.00
      9.4680970621           0.38387871728D-01
      2.0103545142           0.21117025112
      0.54771004707          0.51328172114
P    1   1.00
      0.15268613795          1.0000000
D    1   1.00
      0.8000000              1.0000000
D    1   1.00
      0.11713185140          1.0000000
****
O     0
S    5   1.00
   2266.1767785             -0.53431809926D-02
    340.87010191            -0.39890039230D-01
     77.363135167           -0.17853911985
     21.479644940           -0.46427684959
      6.6589433124          -0.44309745172
S    1   1.00
      0.80975975668          1.0000000
S    1   1.00
      0.25530772234          1.0000000
S    1   1.00
      0.76572453250D-01      1.0000000
P    3   1.00
     17.721504317            0.43394573193D-01
      3.8635505440           0.23094120765
      1.0480920883           0.51375311064
P    1   1.00
      0.27641544411          1.0000000
P    1   1.00
      0.69002276350D-01      1.0000000
D    1   1.00
      1.2000000              1.0000000
D    1   1.00
      0.17992024323          1.0000000
****
F     0
S    5   1.00
   2894.8325990             -0.53408255515D-02
    435.41939120            -0.39904258866D-01
     98.843328866           -0.17912768038
     27.485198001           -0.46758090825
      8.5405498171          -0.44653131020
S    1   1.00
      1.0654578038           1.0000000
S    1   1.00
      0.33247346748          1.0000000
S    1   1.00
      0.98097752264D-01      1.0000000
P    3   1.00
     22.696633924           -0.45212874436D-01
      4.9872339257          -0.23754317067
      1.3491613954          -0.51287353587
P    1   1.00
      0.34829881977          1.0000000
P    1   1.00
      0.83372148304D-01      1.0000000
D    1   1.00
      1.4000000              1.0000000
D    1   1.00
      0.22301361948          1.0000000
****

