%NProcShared=8
%Mem=48GB
%Chk=opt.chk
#p PBEPBE/Gen 5D 7F SCF=(XQC,Tight) Integral=UltraFine NoSymm EmpiricalDispersion=GD3BJ SCRF=(SMD,Solvent=Water) Opt=(Cartesian,CalcFC,Tight,MaxCycles=300)

PCy3_PFBA_s6_c2_p2__water | opt | def2-SVPD

0 1
C 1.8762538830 -1.6591566259 0.5095113659
C 3.3003905305 -1.7995645968 1.0593278126
C 4.2841975000 -0.8936484688 0.3332512670
C 3.8865513211 0.5777264487 0.4523967618
C 2.3829023743 0.7784887556 0.6541894579
C 1.5611482112 -0.2803027815 -0.0955937549
P -0.1832485323 0.1105901582 -0.2922964257
C -0.2727896624 1.3184944399 -1.6483931733
C 0.3529228003 2.6843950194 -1.5278870423
C 1.6369721412 2.9215753338 -2.0404041903
C 2.2224633484 4.1847532068 -1.9392780468
C 1.5281087753 5.2277882408 -1.3315327324
C 0.2471794874 5.0087692643 -0.8298024545
C -0.3385718931 3.7453194456 -0.9312070482
C -0.8911587573 0.9075727204 1.1581592286
C -2.3575683990 1.3456614479 1.0166924957
C -3.3738477014 0.3899462449 1.6243868380
C -3.0527574145 0.0970810894 3.0803789468
C -1.6598837183 -0.4887276824 3.2373353650
C -0.5793817509 0.3416632684 2.5536480763
C -1.1565663552 -1.2764336949 -0.9256778032
C -1.3945590656 -2.4450142013 0.0337682687
C -2.3301460848 -3.5028614447 -0.5468367430
C -1.7998957209 -4.0423512352 -1.8674185795
C -1.5486374354 -2.9122420046 -2.8548429051
C -0.6408854446 -1.8315140096 -2.2698370525
H 1.7240915082 -2.4223680287 -0.2617986485
H 1.1772454205 -1.8941878662 1.3171996275
H 3.3024425113 -1.5491501163 2.1278679793
H 3.6209950136 -2.8449942553 0.9858636978
H 4.3187668665 -1.1768477688 -0.7263271116
H 5.2970095082 -1.0360664856 0.7265210290
H 4.4186808445 1.0399713071 1.2925751084
H 4.2164016269 1.1077778079 -0.4492307614
H 2.1633399734 0.7256365673 1.7264720437
H 2.1122735306 1.7928833564 0.3615401698
H 1.9407959904 -0.3058421154 -1.1266226895
H 0.1774758712 0.8492933336 -2.5298051242
H -1.3284395786 1.4509688509 -1.9151033639
H 2.1946320086 2.1180158155 -2.5164513291
H 3.2205171897 4.3532416968 -2.3346429194
H 1.9829463799 6.2113625792 -1.2523015531
H -0.2991200985 5.8231249781 -0.3613511992
H -1.3434783026 3.5999654796 -0.5446978031
H -0.3222621673 1.8468538856 1.1464564264
H -2.6141400521 1.5100866180 -0.0337045862
H -2.4738013310 2.3172722642 1.5158932574
H -4.3727763048 0.8371173451 1.5582468198
H -3.4147970071 -0.5391939586 1.0493351275
H -3.1276605506 1.0222228755 3.6652533625
H -3.7935156744 -0.5981199389 3.4913511593
H -1.6408875727 -1.5142380204 2.8637893714
H -1.4241640975 -0.5694112005 4.3059061097
H 0.3466700057 -0.2351189014 2.5454978911
H -0.3851978616 1.1998511207 3.2130233925
H -2.1418271496 -0.8354497241 -1.1302955945
H -0.4527636158 -2.9288399364 0.2992580336
H -1.8295935010 -2.0797879846 0.9576901636
H -3.3267547014 -3.0697829165 -0.6968027079
H -2.4439243071 -4.3257941115 0.1679100441
H -2.5157183630 -4.7548107864 -2.2922772454
H -0.8663453893 -4.5910031028 -1.6922693341
H -2.5062410318 -2.4618571098 -3.1444313942
H -1.0982678778 -3.3150929409 -3.7691535546
H 0.3701917009 -2.2329219920 -2.1412617231
H -0.5619918521 -1.0327749587 -3.0111601036
O -3.0448247938 0.8418401582 -1.6484508184
C -3.4928957161 1.9788521503 -1.9770412098
O -4.3295133613 2.6917141961 -1.3476169821
C -3.0188537370 2.5321360838 -3.3250471481
F -1.6543718643 2.4712537018 -3.4122707203
F -3.3348458447 3.8582050316 -3.4453653729
C -3.6663650240 1.7332555426 -4.4173884878
F -3.2011263377 0.4505128933 -4.4785835375
F -3.2873248274 2.2808209654 -5.6293441058
C -5.1848272620 1.7440357802 -4.3436133624
F -5.7052332356 1.0858092950 -3.2883191675
F -5.7061333856 1.1265545747 -5.4480451624
F -5.7048207721 2.9953378366 -4.3517251211

H     0
S    3   1.00
     13.0107010              0.19682158D-01
      1.9622572              0.13796524
      0.44453796             0.47831935
S    1   1.00
      0.12194962             1.0000000
P    1   1.00
      0.8000000              1.0000000
P    1   1.00
      0.11704099050          1.0000000
****
C     0
S    5   1.00
   1238.4016938              0.54568832082D-02
    186.29004992             0.40638409211D-01
     42.251176346            0.18025593888
     11.676557932            0.46315121755
      3.5930506482           0.44087173314
S    1   1.00
      0.40245147363          1.0000000
S    1   1.00
      0.13090182668          1.0000000
S    1   1.00
      0.67053540256D-01      1.0000000
P    3   1.00
      9.4680970621           0.38387871728D-01
      2.0103545142           0.21117025112
      0.54771004707          0.51328172114
P    1   1.00
      0.15268613795          1.0000000
D    1   1.00
      0.8000000              1.0000000
D    1   1.00
      0.11713185140          1.0000000
****
O     0
S    5   1.00
   2266.1767785             -0.53431809926D-02
    340.87010191            -0.39890039230D-01
     77.363135167           -0.17853911985
     21.479644940           -0.46427684959
      6.6589433124          -0.44309745172
S    1   1.00
      0.80975975668          1.0000000
S    1   1.00
      0.25530772234          1.0000000
S    1   1.00
      0.76572453250D-01      1.0000000
P    3   1.00
     17.721504317            0.43394573193D-01
      3.8635505440           0.23094120765
      1.0480920883           0.51375311064
P    1   1.00
      0.27641544411          1.0000000
P    1   1.00
      0.69002276350D-01      1.0000000
D    1   1.00
      1.2000000              1.0000000
D    1   1.00
      0.17992024323          1.0000000
****
F     0
S    5   1.00
   2894.8325990             -0.53408255515D-02
    435.41939120            -0.39904258866D-01
     98.843328866           -0.17912768038
     27.485198001           -0.46758090825
      8.5405498171          -0.44653131020
S    1   1.00
      1.0654578038           1.0000000
S    1   1.00
      0.33247346748          1.0000000
S    1   1.00
      0.98097752264D-01      1.0000000
P    3   1.00
     22.696633924           -0.45212874436D-01
      4.9872339257          -0.23754317067
      1.3491613954          -0.51287353587
P    1   1.00
      0.34829881977          1.0000000
P    1   1.00
      0.83372148304D-01      1.0000000
D    1   1.00
      1.4000000              1.0000000
D    1   1.00
      0.22301361948          1.0000000
****
P     0
S    5   1.00
   8002.4795106              0.57503489302D-02
   1203.6813590              0.43007628959D-01
    273.44227031             0.19363986252
     76.655541517            0.49651693399
     23.516927435            0.44983262479
S    3   1.00
     39.791683439            0.95188129789D-01
      4.2770343323          -0.57649840368
      1.6940256888          -0.54239583865
S    1   1.00
      0.27567674644          1.0000000
S    1   1.00
      0.10495590099          1.0000000
S    1   1.00
      0.64309734755D-01      1.0000000
P    5   1.00
    219.50755823             0.92100565257D-02
     51.274155030            0.65409765745D-01
     15.921595892            0.24033730279
      5.5069913481           0.46318321788
      1.9537719426           0.37392563382
P    1   1.00
      0.47803397932          1.0000000
P    1   1.00
      0.13657952621          1.0000000
D    1   1.00
      0.4500000              1.0000000
D    1   1.00
      0.99587311089D-01      1.0000000
****

