%NProcShared=8
%Mem=30GB
%OldChk=freq.chk
%Chk=basis.chk
#p PBE1PBE/Gen 5D 7F SCF=(XQC,Tight) Integral=UltraFine NoSymm EmpiricalDispersion=GD3BJ SCRF=(SMD,Solvent=Water) SP Geom=AllCheck Guess=Read

H     0
S    4   1.00
    190.6916900              0.70815167D-03
     28.6055320              0.54678827D-02
      6.5095943              0.27966605D-01
      1.8412455              0.10764538
S    1   1.00
      0.59853725             1.0000000
S    1   1.00
      0.21397624             1.0000000
S    1   1.00
      0.80316286D-01         1.0000000
P    1   1.00
      2.29200000             1.0000000
P    1   1.00
      0.83800000             1.0000000
P    1   1.00
      0.29200000             1.0000000
P    1   1.00
      0.84063199228D-01      1.0000000
D    1   1.00
      2.06200000             1.0000000
D    1   1.00
      0.66200000             1.0000000
F    1   1.00
      1.39700000             1.0000000
****
C     0
S    8   1.00
  67025.0710290              0.38736308501D-04
  10039.9865380              0.30107917575D-03
   2284.9316911              0.15787918095D-02
    647.14122130             0.66087087195D-02
    211.09472335             0.23367123250D-01
     76.177643862            0.70420716898D-01
     29.633839163            0.17360344953
     12.187785081            0.32292305648
S    2   1.00
     53.026006299            0.74897404492D-01
     15.258502776            0.76136220983
S    1   1.00
      5.2403957464           1.0000000
S    1   1.00
      2.2905022379           1.0000000
S    1   1.00
      0.69673283006          1.0000000
S    1   1.00
      0.27599337363          1.0000000
S    1   1.00
      0.10739884389          1.0000000
S    1   1.00
      0.44981404899D-01      1.0000000
P    5   1.00
    105.12555082             0.84647553844D-03
     24.884461066            0.66274038534D-02
      7.8637230826           0.30120390419D-01
      2.8407001835           0.99951435476D-01
      1.1227137335           0.23826299282
P    1   1.00
      0.46050725555          1.0000000
P    1   1.00
      0.18937530913          1.0000000
P    1   1.00
      0.75983791611D-01      1.0000000
D    1   1.00
      1.84800000             1.0000000
D    1   1.00
      0.64900000             1.0000000
D    1   1.00
      0.22800000             1.0000000
D    1   1.00
      0.76889830417D-01      1.0000000
F    1   1.00
      1.41900000             1.0000000
F    1   1.00
      0.48500000             1.0000000
G    1   1.00
      1.01100000             1.0000000
****
N     0
S    8   1.00
  90726.8892100              0.39257887368D-04
  13590.5288010              0.30513316455D-03
   3092.9883781              0.16000560446D-02
    875.99876362             0.66982937306D-02
    285.74469982             0.23690078765D-01
    103.11913417             0.71455405268D-01
     40.128556777            0.17632774876
     16.528095704            0.32677592815
S    2   1.00
     69.390960983            0.80052094386D-01
     20.428200596            0.78268063538
S    1   1.00
      7.1292587972           1.0000000
S    1   1.00
      3.1324304893           1.0000000
S    1   1.00
      0.98755778723          1.0000000
S    1   1.00
      0.38765721307          1.0000000
S    1   1.00
      0.14909883075          1.0000000
S    1   1.00
      0.62151630318D-01      1.0000000
P    5   1.00
    150.05742670            -0.86216165986D-03
     35.491599483           -0.68571273236D-02
     11.247864223           -0.31795688855D-01
      4.0900305195          -0.10537396822
      1.6220573146          -0.24519708041
P    1   1.00
      0.66442261530          1.0000000
P    1   1.00
      0.27099770070          1.0000000
P    1   1.00
      0.10688749984          1.0000000
D    1   1.00
      2.83700000             1.0000000
D    1   1.00
      0.96800000             1.0000000
D    1   1.00
      0.33500000             1.0000000
D    1   1.00
      0.10825280010          1.0000000
F    1   1.00
      2.02700000             1.0000000
F    1   1.00
      0.68500000             1.0000000
G    1   1.00
      1.42700000             1.0000000
****
O     0
S    8   1.00
 116506.4690800              0.40383857939D-04
  17504.3497240              0.31255139004D-03
   3993.4513230              0.16341473495D-02
   1133.0063186              0.68283224757D-02
    369.99569594             0.24124410221D-01
    133.62074349             0.72730206154D-01
     52.035643649            0.17934429892
     21.461939313            0.33059588895
S    2   1.00
     89.835051252            0.96468652996D-01
     26.428010844            0.94117481120
S    1   1.00
      9.2822824649           1.0000000
S    1   1.00
      4.0947728533           1.0000000
S    1   1.00
      1.3255349078           1.0000000
S    1   1.00
      0.51877230787          1.0000000
S    1   1.00
      0.19772676454          1.0000000
S    1   1.00
      0.69638535104D-01      1.0000000
P    5   1.00
    191.15255810             0.25115697705D-02
     45.233356739            0.20039240864D-01
     14.353465922            0.93609064762D-01
      5.2422371832           0.30618127124
      2.0792418599           0.67810501439
P    1   1.00
      0.84282371424          1.0000000
P    1   1.00
      0.33617694891          1.0000000
P    1   1.00
      0.12863997974          1.0000000
P    1   1.00
      0.43598162776D-01      1.0000000
D    1   1.00
      3.77500000             1.0000000
D    1   1.00
      1.30000000             1.0000000
D    1   1.00
      0.44400000             1.0000000
D    1   1.00
      0.12546378695          1.0000000
F    1   1.00
      2.66600000             1.0000000
F    1   1.00
      0.85900000             1.0000000
G    1   1.00
      1.84600000             1.0000000
****
F     0
S    8   1.00
 132535.9734500              0.47387482743D-04
  19758.1125880              0.37070120897D-03
   4485.1996947              0.19450784713D-02
   1273.8151020              0.80573291994D-02
    418.93831236             0.27992880781D-01
    152.55721985             0.82735120175D-01
     59.821524823            0.19854169012
     24.819076932            0.34860632233
S    2   1.00
    100.74446673             0.10505068816
     30.103728290            0.94068472434
S    1   1.00
     10.814283272            1.0000000
S    1   1.00
      4.8172886770           1.0000000
S    1   1.00
      1.6559334213           1.0000000
S    1   1.00
      0.64893519582          1.0000000
S    1   1.00
      0.24778104545          1.0000000
S    1   1.00
      0.87626236800D-01      1.0000000
P    5   1.00
    240.96654114             0.30389933451D-02
     57.020699781            0.24357738582D-01
     18.126952120            0.11442925768
      6.6457404621           0.37064659853
      2.6375722892           0.79791551766
P    1   1.00
      1.0638217200           1.0000000
P    1   1.00
      0.41932562750          1.0000000
P    1   1.00
      0.15747588299          1.0000000
P    1   1.00
      0.46772400332D-01      1.0000000
D    1   1.00
      5.01400000             1.0000000
D    1   1.00
      1.72500000             1.0000000
D    1   1.00
      0.58600000             1.0000000
D    1   1.00
      0.15967986245          1.0000000
F    1   1.00
      3.56200000             1.0000000
F    1   1.00
      1.14800000             1.0000000
G    1   1.00
      2.37600000             1.0000000
****

