%NProcShared=8
%Mem=48GB
%Chk=opt.chk
#p PBEPBE/Gen 5D 7F SCF=(XQC,Tight) Integral=UltraFine NoSymm EmpiricalDispersion=GD3BJ Opt=(Cartesian,CalcFC,Tight,MaxCycles=300)

PC4P_PFNA_s7_c1_p1__unsolvated | opt | def2-SVPD

0 1
C -1.1963125709 2.5354795488 0.5619575573
C -1.2697125015 3.8075118076 -0.0072030286
C -2.5038167058 4.4380600678 -0.1487325544
C -3.6648210236 3.7954282089 0.2761885235
C -3.5922750781 2.5222256966 0.8433357909
C -2.3567602785 1.8804745801 0.9934612951
C -2.2834617453 0.4897919447 1.5732928117
P -2.5548858778 -0.8888281818 0.4346299991
C -4.1653406152 -0.7332901754 -0.2839145370
C -4.3609357924 -0.1046019787 -1.5186160858
C -5.6419564266 0.0240236728 -2.0593850095
C -6.7447234278 -0.4735979226 -1.3698982743
C -6.5666833368 -1.0960471085 -0.1374681453
C -5.2856964486 -1.2213793105 0.4022431805
C -2.3682702939 -2.4574166250 1.2350924774
C -1.9986871693 -2.5726171031 2.5789782396
C -1.8537972158 -3.8288677107 3.1721322464
C -2.0778022158 -4.9846636432 2.4278633384
C -2.4470637518 -4.8851332718 1.0894420801
C -2.5900914121 -3.6295405677 0.4982410342
C -1.2570250863 -0.7369083752 -0.8184982665
C 0.1544188756 -1.0163187237 -0.3051999956
C 1.2114204976 -0.6390991116 -1.3468736283
C 2.6352647615 -1.0493553326 -0.9581975244
P 3.3303667476 -0.1636563763 0.5087673112
C 3.3627611056 1.5687073302 -0.0571103528
C 3.9240006295 1.9641791369 -1.2794618725
C 3.9178490107 3.3067428210 -1.6673431133
C 3.3537626161 4.2720448914 -0.8367751814
C 2.7987790530 3.8967487299 0.3836643417
C 2.8036641129 2.5543103044 0.7705799355
C 5.1024545392 -0.6219927117 0.4688447350
C 5.5223077432 -1.8997511848 0.0680326074
C 6.8773906670 -2.2476124988 0.0631252650
C 7.8370423025 -1.3280011500 0.4746409867
C 7.4412954854 -0.0645926458 0.9012416993
C 6.0864116060 0.2808233258 0.9062410469
H -0.2254894579 2.0555062373 0.6562500814
H -0.3630433038 4.3021620924 -0.3453728166
H -2.5616699682 5.4274920171 -0.5938154282
H -4.6298641841 4.2815885882 0.1609713950
H -4.5100373986 2.0288088041 1.1572488608
H -1.3085996846 0.3653879893 2.0589331103
H -3.0214908049 0.4133972699 2.3819259306
H -3.5182740303 0.3073068921 -2.0667741231
H -5.7772918614 0.5181200448 -3.0178210328
H -7.7411993680 -0.3735730032 -1.7910868692
H -7.4239200075 -1.4845187567 0.4057207769
H -5.1632125103 -1.7078308135 1.3675312252
H -1.8166889286 -1.6892121957 3.1833709139
H -1.5648732118 -3.9044375390 4.2172767436
H -1.9653511229 -5.9611998129 2.8908308878
H -2.6255369609 -5.7835024812 0.5047536093
H -2.8832499637 -3.5633699154 -0.5475286739
H -1.3009876347 0.2671988791 -1.2517276322
H -1.4837604282 -1.4387122372 -1.6298113788
H 0.2435114610 -2.0786401454 -0.0512568542
H 0.3219507625 -0.4573100337 0.6196532325
H 1.1584696594 0.4370119732 -1.5505588260
H 0.9651996587 -1.1431633831 -2.2904762276
H 2.6375377295 -2.1254774280 -0.7506495353
H 3.2868617372 -0.8973790944 -1.8261301919
H 4.3840901631 1.2339006263 -1.9409246296
H 4.3591935531 3.5971702754 -2.6172234262
H 3.3521381221 5.3161499758 -1.1382712778
H 2.3622155659 4.6469754924 1.0379521651
H 2.3666477161 2.2857808276 1.7305579995
H 4.8040401617 -2.6553295402 -0.2378215161
H 7.1795358390 -3.2418901294 -0.2555181592
H 8.8893036149 -1.5987865041 0.4734284274
H 8.1832953385 0.6549785230 1.2370840695
H 5.8114789686 1.2721161480 1.2614931464
O -3.4219684072 -2.1617448485 -2.4272489374
C -3.7586641960 -2.6560296099 -3.5385417536
O -4.0820625754 -2.0226500337 -4.5917919696
C -3.7551417666 -4.1825429321 -3.6766641140
F -4.5395704800 -4.6995011133 -2.6772563242
F -2.4944977695 -4.6565037783 -3.4482695828
C -4.2687346220 -4.6593476130 -5.0177939015
F -5.5271333208 -4.2094849083 -5.2773305583
F -4.4473344116 -6.0340420370 -4.8986885023
C -3.3515369384 -4.4761829789 -6.2264453688
F -2.1914251015 -5.1819182191 -5.9792456484
F -3.9249362088 -5.1573493853 -7.2826229236
C -2.9387358737 -3.1080127395 -6.7460613357
F -2.0440765253 -3.3353827913 -7.7843997863
F -2.1673374432 -2.4571635442 -5.8482858216
C -4.0802012422 -2.2882545711 -7.3543610155
F -5.2492519847 -2.3231736253 -6.6870553206
F -4.3967797269 -2.9169046204 -8.5496857916
C -3.6902507169 -0.8600070036 -7.7040711530
F -4.5995598923 -0.3861462099 -8.6246603310
F -2.5075255987 -0.8995396530 -8.4056385466
C -3.5641575221 0.1797337725 -6.6057372823
F -3.0055254747 1.3091795014 -7.1918980034
F -2.6538883813 -0.1660568575 -5.6691934175
C -4.9106186084 0.6181180256 -6.0362522958
F -4.7540662482 1.5766518778 -5.0837780658
F -5.7004348239 -0.3344973498 -5.5215324277
F -5.6572769002 1.2115429813 -7.0160420946

H     0
S    3   1.00
     13.0107010              0.19682158D-01
      1.9622572              0.13796524
      0.44453796             0.47831935
S    1   1.00
      0.12194962             1.0000000
P    1   1.00
      0.8000000              1.0000000
P    1   1.00
      0.11704099050          1.0000000
****
C     0
S    5   1.00
   1238.4016938              0.54568832082D-02
    186.29004992             0.40638409211D-01
     42.251176346            0.18025593888
     11.676557932            0.46315121755
      3.5930506482           0.44087173314
S    1   1.00
      0.40245147363          1.0000000
S    1   1.00
      0.13090182668          1.0000000
S    1   1.00
      0.67053540256D-01      1.0000000
P    3   1.00
      9.4680970621           0.38387871728D-01
      2.0103545142           0.21117025112
      0.54771004707          0.51328172114
P    1   1.00
      0.15268613795          1.0000000
D    1   1.00
      0.8000000              1.0000000
D    1   1.00
      0.11713185140          1.0000000
****
O     0
S    5   1.00
   2266.1767785             -0.53431809926D-02
    340.87010191            -0.39890039230D-01
     77.363135167           -0.17853911985
     21.479644940           -0.46427684959
      6.6589433124          -0.44309745172
S    1   1.00
      0.80975975668          1.0000000
S    1   1.00
      0.25530772234          1.0000000
S    1   1.00
      0.76572453250D-01      1.0000000
P    3   1.00
     17.721504317            0.43394573193D-01
      3.8635505440           0.23094120765
      1.0480920883           0.51375311064
P    1   1.00
      0.27641544411          1.0000000
P    1   1.00
      0.69002276350D-01      1.0000000
D    1   1.00
      1.2000000              1.0000000
D    1   1.00
      0.17992024323          1.0000000
****
F     0
S    5   1.00
   2894.8325990             -0.53408255515D-02
    435.41939120            -0.39904258866D-01
     98.843328866           -0.17912768038
     27.485198001           -0.46758090825
      8.5405498171          -0.44653131020
S    1   1.00
      1.0654578038           1.0000000
S    1   1.00
      0.33247346748          1.0000000
S    1   1.00
      0.98097752264D-01      1.0000000
P    3   1.00
     22.696633924           -0.45212874436D-01
      4.9872339257          -0.23754317067
      1.3491613954          -0.51287353587
P    1   1.00
      0.34829881977          1.0000000
P    1   1.00
      0.83372148304D-01      1.0000000
D    1   1.00
      1.4000000              1.0000000
D    1   1.00
      0.22301361948          1.0000000
****
P     0
S    5   1.00
   8002.4795106              0.57503489302D-02
   1203.6813590              0.43007628959D-01
    273.44227031             0.19363986252
     76.655541517            0.49651693399
     23.516927435            0.44983262479
S    3   1.00
     39.791683439            0.95188129789D-01
      4.2770343323          -0.57649840368
      1.6940256888          -0.54239583865
S    1   1.00
      0.27567674644          1.0000000
S    1   1.00
      0.10495590099          1.0000000
S    1   1.00
      0.64309734755D-01      1.0000000
P    5   1.00
    219.50755823             0.92100565257D-02
     51.274155030            0.65409765745D-01
     15.921595892            0.24033730279
      5.5069913481           0.46318321788
      1.9537719426           0.37392563382
P    1   1.00
      0.47803397932          1.0000000
P    1   1.00
      0.13657952621          1.0000000
D    1   1.00
      0.4500000              1.0000000
D    1   1.00
      0.99587311089D-01      1.0000000
****

