%NProcShared=8
%Mem=30GB
%Chk=opt.chk
#p PBEPBE/Gen 5D 7F SCF=(XQC,Tight) Integral=UltraFine NoSymm EmpiricalDispersion=GD3BJ SCRF=(SMD,Solvent=Water) Opt=(Cartesian,CalcFC,Tight,MaxCycles=300)

A400_PFNA_s1_c3_p3__water | opt | def2-SVPD

0 1
C -1.3328226986 -0.0017917514 -1.6515233658
N -1.5561288828 -0.1483040528 -0.1535857397
C -2.8687598092 -0.8908644845 0.0761630564
C -1.6602780163 1.2343728714 0.4729153955
C -0.4231449540 -0.9690183113 0.4986060782
C 0.9715101633 -0.4064986209 0.3862857572
C 1.4761141223 0.4586668701 1.3705755018
C 2.7633858494 0.9866417272 1.2593709369
C 3.5633615477 0.6523496608 0.1697200044
C 3.0819065333 -0.2156520197 -0.8069199206
C 1.7951852533 -0.7457042252 -0.6992831564
H -2.2119675834 0.4852750425 -2.0849355740
H -1.2017251023 -0.9985545694 -2.0826086805
H -0.4493513336 0.6181792172 -1.8239396809
H -3.0314376324 -0.9826779677 1.1542088374
H -2.7939049352 -1.8793552614 -0.3868267064
H -3.6795944155 -0.3170266669 -0.3827177215
H -2.5427383575 1.7337945800 0.0608235080
H -0.7650313891 1.8098085720 0.2238694911
H -1.7624746864 1.1185784559 1.5558345286
H -0.6896994027 -1.0906777819 1.5566616524
H -0.4569784402 -1.9691189228 0.0469554619
H 0.8822376667 0.7253424116 2.2427016924
H 3.1509455236 1.6531793525 2.0275457249
H 4.5693256394 1.0593787646 0.0879558761
H 3.7175573136 -0.4855615240 -1.6481489520
H 1.4545080268 -1.4347613656 -1.4697040056
O -6.2442138936 1.2311922279 0.5670763753
C -5.3845358729 0.6293034785 1.2772576169
O -4.1222801568 0.6766959472 1.1633207259
C -5.9242212026 -0.2659751824 2.4087212527
F -7.1100876964 0.2283331341 2.8827478260
F -6.2230664459 -1.4961234853 1.8787502841
C -4.9430532763 -0.4250178841 3.5424810653
F -3.7829421240 -1.0234607714 3.1610915692
F -5.4920262102 -1.3156864651 4.4437320380
C -4.6728721615 0.8646391619 4.3005522399
F -5.7975161450 1.2249154767 4.9972802635
F -4.4277934844 1.9220498511 3.4813659150
C -3.5105665698 0.7621999395 5.2796927955
F -2.3292001875 0.6038424120 4.6191160590
F -3.3963130710 1.9733355238 5.9178470019
C -3.6468853364 -0.3252490985 6.3313236482
F -4.8645879680 -0.2491085789 6.9333953011
F -3.5786851381 -1.5558703653 5.7599985611
C -2.5545975203 -0.2103338307 7.3828539837
F -2.6250858573 0.9959860169 8.0111115143
F -1.3260188707 -0.2556399342 6.7998096715
C -2.6736575596 -1.3164936863 8.4068006575
F -2.5843953611 -2.5417161747 7.8160955497
F -3.8938589470 -1.2835017506 9.0156151146
C -1.5794039702 -1.1689517191 9.4459654674
F -0.3380363902 -1.2488002092 8.9128983086
F -1.6593249679 -2.1498325300 10.3831509838
F -1.6513663611 0.0054237709 10.1156835700

H     0
S    3   1.00
     13.0107010              0.19682158D-01
      1.9622572              0.13796524
      0.44453796             0.47831935
S    1   1.00
      0.12194962             1.0000000
P    1   1.00
      0.8000000              1.0000000
P    1   1.00
      0.11704099050          1.0000000
****
C     0
S    5   1.00
   1238.4016938              0.54568832082D-02
    186.29004992             0.40638409211D-01
     42.251176346            0.18025593888
     11.676557932            0.46315121755
      3.5930506482           0.44087173314
S    1   1.00
      0.40245147363          1.0000000
S    1   1.00
      0.13090182668          1.0000000
S    1   1.00
      0.67053540256D-01      1.0000000
P    3   1.00
      9.4680970621           0.38387871728D-01
      2.0103545142           0.21117025112
      0.54771004707          0.51328172114
P    1   1.00
      0.15268613795          1.0000000
D    1   1.00
      0.8000000              1.0000000
D    1   1.00
      0.11713185140          1.0000000
****
N     0
S    5   1.00
   1712.8415853             -0.53934125305D-02
    257.64812677            -0.40221581118D-01
     58.458245853           -0.17931144990
     16.198367905           -0.46376317823
      5.0052600809          -0.44171422662
S    1   1.00
      0.58731856571          1.0000000
S    1   1.00
      0.18764592253          1.0000000
S    1   1.00
      0.96171241529D-01      1.0000000
P    3   1.00
     13.571470233           -0.40072398852D-01
      2.9257372874          -0.21807045028
      0.79927750754         -0.51294466049
P    1   1.00
      0.21954348034          1.0000000
D    1   1.00
      1.0000000              1.0000000
D    1   1.00
      0.16697708112          1.0000000
****
O     0
S    5   1.00
   2266.1767785             -0.53431809926D-02
    340.87010191            -0.39890039230D-01
     77.363135167           -0.17853911985
     21.479644940           -0.46427684959
      6.6589433124          -0.44309745172
S    1   1.00
      0.80975975668          1.0000000
S    1   1.00
      0.25530772234          1.0000000
S    1   1.00
      0.76572453250D-01      1.0000000
P    3   1.00
     17.721504317            0.43394573193D-01
      3.8635505440           0.23094120765
      1.0480920883           0.51375311064
P    1   1.00
      0.27641544411          1.0000000
P    1   1.00
      0.69002276350D-01      1.0000000
D    1   1.00
      1.2000000              1.0000000
D    1   1.00
      0.17992024323          1.0000000
****
F     0
S    5   1.00
   2894.8325990             -0.53408255515D-02
    435.41939120            -0.39904258866D-01
     98.843328866           -0.17912768038
     27.485198001           -0.46758090825
      8.5405498171          -0.44653131020
S    1   1.00
      1.0654578038           1.0000000
S    1   1.00
      0.33247346748          1.0000000
S    1   1.00
      0.98097752264D-01      1.0000000
P    3   1.00
     22.696633924           -0.45212874436D-01
      4.9872339257          -0.23754317067
      1.3491613954          -0.51287353587
P    1   1.00
      0.34829881977          1.0000000
P    1   1.00
      0.83372148304D-01      1.0000000
D    1   1.00
      1.4000000              1.0000000
D    1   1.00
      0.22301361948          1.0000000
****

