%NProcShared=8
%Mem=48GB
%Chk=opt.chk
#p PBEPBE/Gen 5D 7F SCF=(XQC,Tight) Integral=UltraFine NoSymm EmpiricalDispersion=GD3BJ Opt=(Cartesian,CalcFC,Tight,MaxCycles=300)

PPh3_Cl_c2_p2__unsolvated | opt | def2-SVPD

0 1
C 0.1409898942 0.6730762299 2.6628647934
C 0.0337014402 0.2474431781 3.9878132008
C -0.6284751822 -0.9400494452 4.2846448192
C -1.1916906112 -1.6929917380 3.2577805573
C -1.0841675003 -1.2643843767 1.9326715151
C -0.3987219833 -0.0865977727 1.6132363231
P -0.2578313631 0.5127310827 -0.0630530585
C 1.4948864824 0.8909839979 -0.4104188257
C 2.4934111835 -0.2399139198 -0.3770811350
C 3.0058487548 -0.7123340566 0.8367096729
C 3.9146250866 -1.7720113729 0.8586415437
C 4.3220960798 -2.3689828289 -0.3322514585
C 3.8210717206 -1.9066103662 -1.5466582918
C 2.9120402748 -0.8477085187 -1.5695172389
C -1.2054329047 2.0310795643 -0.1672203575
C -2.4596414368 2.1053906840 0.4585674501
C -3.2287577644 3.2678574813 0.3899318790
C -2.7568279507 4.3733871278 -0.3113665573
C -1.5183995719 4.3135246498 -0.9451977984
C -0.7487859973 3.1494980933 -0.8754350426
C -0.8213313214 -0.6561183568 -1.2866386370
C -0.3179654525 -1.9652861086 -1.3068765542
C -0.7377889240 -2.8863902644 -2.2683062153
C -1.6710542641 -2.5114371602 -3.2295276292
C -2.1808038694 -1.2161836027 -3.2280171106
C -1.7572623189 -0.2962188077 -2.2653933217
H 0.6440094319 1.6135746596 2.4502576576
H 0.4605785286 0.8472014072 4.7871823939
H -0.7158654390 -1.2730277580 5.3151857007
H -1.7230768068 -2.6131290037 3.4866480456
H -1.5562132322 -1.8584868854 1.1552563854
H 1.5388016904 1.3479854975 -1.4062801959
H 1.8282975306 1.6711325876 0.2847462290
H 2.7040081042 -0.2622225776 1.7786134893
H 4.3029014675 -2.1316638930 1.8079298763
H 5.0286724297 -3.1941801385 -0.3133837340
H 4.1339816396 -2.3722207578 -2.4773708223
H 2.5212438244 -0.5082357399 -2.5267286899
H -2.8465263051 1.2480372233 1.0056149905
H -4.1959479341 3.3071932123 0.8839791060
H -3.3544237874 5.2792292623 -0.3662144352
H -1.1505226271 5.1741913175 -1.4979898328
H 0.2065948522 3.1325656661 -1.3900034726
H 0.4133356532 -2.2794649846 -0.5643268648
H -0.3327845969 -3.8948136107 -2.2641497540
H -1.9999562418 -3.2262460352 -3.9786359502
H -2.9095114896 -0.9176036868 -3.9771290680
H -2.1713291927 0.7084308447 -2.2931035773
Cl 0.2024215861 3.7677310827 1.4043058692

H     0
S    3   1.00
     13.0107010              0.19682158D-01
      1.9622572              0.13796524
      0.44453796             0.47831935
S    1   1.00
      0.12194962             1.0000000
P    1   1.00
      0.8000000              1.0000000
P    1   1.00
      0.11704099050          1.0000000
****
C     0
S    5   1.00
   1238.4016938              0.54568832082D-02
    186.29004992             0.40638409211D-01
     42.251176346            0.18025593888
     11.676557932            0.46315121755
      3.5930506482           0.44087173314
S    1   1.00
      0.40245147363          1.0000000
S    1   1.00
      0.13090182668          1.0000000
S    1   1.00
      0.67053540256D-01      1.0000000
P    3   1.00
      9.4680970621           0.38387871728D-01
      2.0103545142           0.21117025112
      0.54771004707          0.51328172114
P    1   1.00
      0.15268613795          1.0000000
D    1   1.00
      0.8000000              1.0000000
D    1   1.00
      0.11713185140          1.0000000
****
P     0
S    5   1.00
   8002.4795106              0.57503489302D-02
   1203.6813590              0.43007628959D-01
    273.44227031             0.19363986252
     76.655541517            0.49651693399
     23.516927435            0.44983262479
S    3   1.00
     39.791683439            0.95188129789D-01
      4.2770343323          -0.57649840368
      1.6940256888          -0.54239583865
S    1   1.00
      0.27567674644          1.0000000
S    1   1.00
      0.10495590099          1.0000000
S    1   1.00
      0.64309734755D-01      1.0000000
P    5   1.00
    219.50755823             0.92100565257D-02
     51.274155030            0.65409765745D-01
     15.921595892            0.24033730279
      5.5069913481           0.46318321788
      1.9537719426           0.37392563382
P    1   1.00
      0.47803397932          1.0000000
P    1   1.00
      0.13657952621          1.0000000
D    1   1.00
      0.4500000              1.0000000
D    1   1.00
      0.99587311089D-01      1.0000000
****
Cl     0
S    5   1.00
  10449.8275660              0.19708362484D-02
   1571.7365221              0.14754727977D-01
    357.12065523             0.66679112875D-01
    100.25185935             0.17228924084
     30.812727554            0.15883786100
S    3   1.00
     51.923789434           -0.10009298909
      5.7045760975           0.60841752753
      2.3508376809           0.54352153355
S    1   1.00
      0.44605124672          1.0000000
S    1   1.00
      0.16848856190          1.0000000
S    1   1.00
      0.55344229413D-01      1.0000000
P    5   1.00
    307.66790569            -0.87801484118D-02
     72.102015515           -0.63563355471D-01
     22.532680262           -0.24016428276
      7.8991765444          -0.47798866557
      2.8767268321          -0.38515850005
P    1   1.00
      0.77459363955          1.0000000
P    1   1.00
      0.21037699698          1.0000000
P    1   1.00
      0.50046271086D-01      1.0000000
D    1   1.00
      0.6500000              1.0000000
D    1   1.00
      0.12284803390          1.0000000
****

