%NProcShared=8
%Mem=30GB
%Chk=opt.chk
#p PBEPBE/6-31+G(d,p) Opt=(CalcFC,Tight,MaxCycles=250) EmpiricalDispersion=GD3BJ SCF=(XQC,Tight) Integral=UltraFine NoSymm

A400_PFHpA_head_axial__unsolvated | opt

0 1
C  -0.5566950646 -1.3439910110  0.4592976295
N   0.0000000000  0.0000000000  0.0000000000
C  -0.9594641671  1.0996553712  0.4304987401
C   1.3485241254  0.2247909877  0.6679034873
C   0.1420150732 -0.0422755299 -1.5364310404
C   0.6810559772  1.1994261314 -2.2010522821
C  -0.1877259808  2.2128930114 -2.6370155881
C   0.3139375804  3.3661586663 -3.2424136725
C   1.6859302837  3.5180772901 -3.4257345329
C   2.5587425457  2.5152445016 -3.0115164457
C   2.0609560473  1.3605097366 -2.4057193018
H   0.1424293286 -2.1301424508  0.1588556904
H  -0.6614552734 -1.3248548526  1.5483212912
H  -1.5317440727 -1.4955319577 -0.0133445064
H  -0.5187469867  2.0723055426  0.1973944615
H  -1.9064488236  0.9618991836 -0.0994134768
H  -1.1149952178  1.0177810668  1.5108153356
H   1.2161652754  0.1341287521  1.7506033912
H   2.0463507845 -0.5364429500  0.3071754486
H   1.7059899172  1.2289998720  0.4262394257
H   0.7881721381 -0.8983901726 -1.7707046177
H  -0.8519639239 -0.2766833010 -1.9394119370
H  -1.2658178352  2.1163836549 -2.5238209405
H  -0.3644110007  4.1464237169 -3.5824130181
H   2.0750360572  4.4147647772 -3.9041382234
H   3.6288412348  2.6327438993 -3.1716727930
H   2.7673178724  0.5875890280 -2.1089783858
O  -2.8199056720 -0.2250000000  0.9987527227
C  -4.0077002574 -0.3197740147  1.4194451906
O  -4.5108603386 -1.2450859191  2.1242684914
C  -4.9872133841  0.7869860233  1.0170579681
F  -5.8366953971  1.0745291281  2.0483457622
F  -4.3226426951  1.9524632454  0.7527843396
C  -5.7616604049  0.3283651894 -0.1893645026
F  -4.9269277526  0.1519093160 -1.2625794863
F  -6.5784981282  1.3643045671 -0.5918071014
C  -6.6412241194 -0.9097688313 -0.0479196974
F  -5.8828944924 -2.0399939836  0.0332779453
F  -7.3038427321 -1.0679307040 -1.2542679466
C  -7.7107964277 -0.9246820632  1.0414608094
F  -7.1907807185 -0.9363942958  2.2899461087
F  -8.3889488014 -2.1170198632  0.9322351811
C  -8.7188579082  0.1967897211  0.9251905679
F  -9.2451544340  0.2475053442 -0.3331005198
F  -8.1421141697  1.4104721353  1.1338764240
C  -9.8355825740 -0.0086033216  1.9331297808
F  -10.7511138472  0.9958270045  1.8497368248
F  -10.5244843145 -1.1571834909  1.7292993081
F  -9.4037655580 -0.0226498563  3.2141871395

