%NProcShared=8
%Mem=30GB
%Chk=opt.chk
#p PBEPBE/6-31+G(d,p) Opt=(CalcFC,Tight,MaxCycles=250) EmpiricalDispersion=GD3BJ SCF=(XQC,Tight) Integral=UltraFine NoSymm

free_PFBA__unsolvated | opt

-1 1
O   1.8856298961  0.3284019752 -1.7891884813
C   1.6405656151  0.3760167205 -0.5485397031
O   1.9788751015  1.2792961922  0.2723794012
C   0.7791529094 -0.7576928209  0.0177021733
F   1.2808566714 -1.9730992403 -0.3620389798
F   0.8133515464 -0.7584757888  1.3857723703
C  -0.6257444257 -0.5749054565 -0.4757980155
F  -1.4101896108 -1.5615088047  0.0930556197
F  -0.7454506844 -0.7958114782 -1.8183677016
C  -1.2163659854  0.7761682833 -0.1055910929
F  -1.1876908741  1.0173753094  1.2275287479
F  -0.6536050363  1.8304451297 -0.7297137268
F  -2.5393851232  0.8137899791 -0.4534644315

