%NProcShared=8
%Mem=30GB
%Chk=opt.chk
#p PBEPBE/6-31+G(d,p) Opt=(CalcFC,Tight,MaxCycles=250) EmpiricalDispersion=GD3BJ SCF=(XQC,Tight) Integral=UltraFine NoSymm SCRF=(SMD,Solvent=Water)

A400_PFPeA_alternate_oxygen__water | opt

0 1
C  -0.5566950646 -1.3439910110  0.4592976295
N   0.0000000000  0.0000000000  0.0000000000
C  -0.9594641671  1.0996553712  0.4304987401
C   1.3485241254  0.2247909877  0.6679034873
C   0.1420150732 -0.0422755299 -1.5364310404
C   0.6810559772  1.1994261314 -2.2010522821
C  -0.1877259808  2.2128930114 -2.6370155881
C   0.3139375804  3.3661586663 -3.2424136725
C   1.6859302837  3.5180772901 -3.4257345329
C   2.5587425457  2.5152445016 -3.0115164457
C   2.0609560473  1.3605097366 -2.4057193018
H   0.1424293286 -2.1301424508  0.1588556904
H  -0.6614552734 -1.3248548526  1.5483212912
H  -1.5317440727 -1.4955319577 -0.0133445064
H  -0.5187469867  2.0723055426  0.1973944615
H  -1.9064488236  0.9618991836 -0.0994134768
H  -1.1149952178  1.0177810668  1.5108153356
H   1.2161652754  0.1341287521  1.7506033912
H   2.0463507845 -0.5364429500  0.3071754486
H   1.7059899172  1.2289998720  0.4262394257
H   0.7881721381 -0.8983901726 -1.7707046177
H  -0.8519639239 -0.2766833010 -1.9394119370
H  -1.2658178352  2.1163836549 -2.5238209405
H  -0.3644110007  4.1464237169 -3.5824130181
H   2.0750360572  4.4147647772 -3.9041382234
H   3.6288412348  2.6327438993 -3.1716727930
H   2.7673178724  0.5875890280 -2.1089783858
O  -4.4724540795 -1.4834401111  0.0762794875
C  -3.9739247043 -0.7497904130  0.9756531817
O  -2.8199056720 -0.2250000000  0.9987527227
C  -4.8253802899 -0.4707639428  2.2166349957
F  -4.7678154135  0.8529174697  2.5493462818
F  -6.1472293038 -0.7266354917  1.9735748438
C  -4.3196369310 -1.3234506635  3.3488087002
F  -4.5622928045 -2.6499577893  3.0889456991
F  -5.1190558224 -1.0591700536  4.4468560297
C  -2.8770953189 -1.1777540684  3.7993733601
F  -2.7219239670 -1.9928264866  4.9128699335
F  -1.9892633811 -1.6956886420  2.9121371227
C  -2.5100547504  0.2350807103  4.2254536165
F  -1.2614200618  0.2585012051  4.7761278373
F  -3.3433687592  0.6897313332  5.2005477959
F  -2.5079056186  1.1671769706  3.2579029980

