%NProcShared=8
%Mem=48GB
%Chk=opt.chk
#p PBEPBE/6-31+G(d,p) Opt=(CalcFC,Tight,MaxCycles=250) EmpiricalDispersion=GD3BJ SCF=(XQC,Tight) Integral=UltraFine NoSymm

PPh3_PFOS_head_axial__unsolvated | opt

0 1
C   1.0136891681  2.0290606411 -1.6458589778
C   1.6345273710  3.2595048474 -1.8754101304
C   2.0507924733  4.0447590825 -0.8034398093
C   1.8433205795  3.6020887081  0.4995284302
C   1.2225686149  2.3732264292  0.7278808871
C   0.8046401467  1.5653606736 -0.3411623875
P   0.0000000000  0.0000000000  0.0000000000
C   0.1271061238 -1.0593849129 -1.4823333788
C  -0.4806842282 -2.4396655583 -1.4322838187
C   0.1929520525 -3.5010712737 -0.8169006310
C  -0.3860253507 -4.7701858308 -0.7585664417
C  -1.6431151656 -4.9919864729 -1.3163857996
C  -2.3226300863 -3.9445229027 -1.9333787983
C  -1.7448793931 -2.6752952127 -1.9916176357
C  -1.7307078987  0.2542255214  0.3477452914
C  -2.5361091316 -0.8119527469  0.7747057841
C  -3.8957265397 -0.6315807580  1.0353537846
C  -4.4745108801  0.6229251242  0.8718299795
C  -3.6928681625  1.6933034197  0.4465676157
C  -2.3327398718  1.5090157925  0.1849277744
C   0.8903892163 -0.7730224337  1.3411313890
C   0.3255438652 -0.9552051004  2.6087334030
C   1.0584933765 -1.5458903848  3.6407483667
C   2.3736399856 -1.9481549598  3.4235843607
C   2.9599561543 -1.7504313622  2.1770438235
C   2.2252140813 -1.1611612158  1.1469591346
H   0.6915582244  1.4471942588 -2.5034601607
H   1.7908521420  3.6060917953 -2.8937915835
H   2.5336110694  5.0014485198 -0.9831885883
H   2.1629507960  4.2118474121  1.3404270283
H   1.0622930886  2.0452319028  1.7529274841
H  -0.3410188414 -0.5166405741 -2.3122728593
H   1.1854592476 -1.1540740058 -1.7543053805
H   1.1749497843 -3.3530898446 -0.3756872470
H   0.1459864965 -5.5854136993 -0.2752149625
H  -2.0927077116 -5.9800174793 -1.2693030121
H  -3.3049615313 -4.1130375035 -2.3664542200
H  -2.2960292337 -1.8658416831 -2.4662108290
H  -2.1037075062 -1.8018848661  0.9086798780
H  -4.4994811064 -1.4731253306  1.3643511049
H  -5.5321940452  0.7663642303  1.0743694554
H  -4.1399959644  2.6753700897  0.3163575415
H  -1.7502211353  2.3637658200 -0.1491543134
H  -0.6894180111 -0.6273453618  2.8149359701
H   0.6017207950 -1.6843706206  4.6172661444
H   2.9435567017 -2.4043936398  4.2282996073
H   3.9914101630 -2.0474537816  2.0073177340
H   2.7049408238 -0.9954500765  0.1851025421
O  -2.2716149564  0.2979166667 -2.3051054530
S  -3.2930648463  0.4318772860 -3.3416146133
O  -4.3720750355 -0.5526103369 -3.2468091947
O  -3.7679627095  1.8045107946 -3.5263752953
C  -2.4418390852  0.0516272723 -4.8949398796
F  -3.2215242254  0.3131364428 -5.9987935768
F  -2.1427326429 -1.2906367921 -5.0148309369
C  -1.1519340069  0.8357243524 -5.0104837613
F  -0.6152325156  0.5446834163 -6.2573769152
F  -0.2043450310  0.3414096563 -4.1495868572
C  -1.1750814045  2.3538362307 -4.8906924795
F  -1.4425458939  2.7745625485 -3.6347017623
F   0.1239344976  2.7798274269 -5.1045492671
C  -2.0460214702  3.0569401621 -5.9238801748
F  -3.3257799778  2.6336226722 -5.8895370692
F  -1.6009396376  2.7454435943 -7.1773692172
C  -2.0084235714  4.5654298273 -5.7466537871
F  -2.5680556085  4.9338585399 -4.5628871349
F  -0.7066526438  4.9909724358 -5.6747662309
C  -2.6637639369  5.3477549942 -6.8752599936
F  -1.9710312634  5.1539717793 -8.0365963365
F  -2.5057912297  6.6820331184 -6.5966898811
C  -4.1276091816  5.0585497961 -7.1048455333
F  -4.2931450803  3.8045500245 -7.6077391161
F  -4.8205053748  5.1075281259 -5.9370757029
C  -4.6959318787  6.0656034433 -8.0881089159
F  -6.0037128458  5.8139664313 -8.3546142171
F  -4.0511353872  6.0456340838 -9.2795450026
F  -4.6394992762  7.3384094481 -7.6292436456

