%NProcShared=8
%Mem=30GB
%Chk=opt.chk
#p PBEPBE/Gen 5D 7F SCF=(XQC,Tight) Integral=UltraFine NoSymm EmpiricalDispersion=GD3BJ Opt=(Cartesian,CalcFC,Tight,MaxCycles=300)

free_PFHpA_c2__unsolvated | opt | def2-SVPD

-1 1
O -3.0715296489 0.3606618317 0.9209691645
C -3.0714130837 -0.2534648678 -0.1870207233
O -3.9498486964 -0.2132594035 -1.0951437615
C -1.8287059749 -1.1076510929 -0.4557160331
F -1.3586079839 -1.6625304544 0.7001802115
F -2.1327746130 -2.1631917487 -1.2708212805
C -0.7747059717 -0.2374908411 -1.0853461813
F -1.1807180762 0.2068841029 -2.3155118780
F 0.3142512509 -1.0331990549 -1.3743970624
C -0.2504851998 0.9513053318 -0.2871021897
F -1.2059654426 1.9114987826 -0.1503923450
F 0.7069369484 1.5793944905 -1.0579747177
C 0.4009416008 0.6670298231 1.0627707913
F 0.8338767391 1.8683526479 1.5806155141
F -0.5142424541 0.2237083858 1.9664512883
C 1.5846375927 -0.2840248152 1.0864327409
F 2.0195171237 -0.3935443100 2.3890655528
F 1.2165827287 -1.5474607433 0.7410692593
C 2.7583349780 0.1767570244 0.2393202737
F 3.1598609542 1.4320577254 0.5449801832
F 2.5055801253 0.1466228124 -1.0860105743
F 3.8384771031 -0.6284556268 0.4303035092

C     0
S    5   1.00
   1238.4016938              0.54568832082D-02
    186.29004992             0.40638409211D-01
     42.251176346            0.18025593888
     11.676557932            0.46315121755
      3.5930506482           0.44087173314
S    1   1.00
      0.40245147363          1.0000000
S    1   1.00
      0.13090182668          1.0000000
S    1   1.00
      0.67053540256D-01      1.0000000
P    3   1.00
      9.4680970621           0.38387871728D-01
      2.0103545142           0.21117025112
      0.54771004707          0.51328172114
P    1   1.00
      0.15268613795          1.0000000
D    1   1.00
      0.8000000              1.0000000
D    1   1.00
      0.11713185140          1.0000000
****
O     0
S    5   1.00
   2266.1767785             -0.53431809926D-02
    340.87010191            -0.39890039230D-01
     77.363135167           -0.17853911985
     21.479644940           -0.46427684959
      6.6589433124          -0.44309745172
S    1   1.00
      0.80975975668          1.0000000
S    1   1.00
      0.25530772234          1.0000000
S    1   1.00
      0.76572453250D-01      1.0000000
P    3   1.00
     17.721504317            0.43394573193D-01
      3.8635505440           0.23094120765
      1.0480920883           0.51375311064
P    1   1.00
      0.27641544411          1.0000000
P    1   1.00
      0.69002276350D-01      1.0000000
D    1   1.00
      1.2000000              1.0000000
D    1   1.00
      0.17992024323          1.0000000
****
F     0
S    5   1.00
   2894.8325990             -0.53408255515D-02
    435.41939120            -0.39904258866D-01
     98.843328866           -0.17912768038
     27.485198001           -0.46758090825
      8.5405498171          -0.44653131020
S    1   1.00
      1.0654578038           1.0000000
S    1   1.00
      0.33247346748          1.0000000
S    1   1.00
      0.98097752264D-01      1.0000000
P    3   1.00
     22.696633924           -0.45212874436D-01
      4.9872339257          -0.23754317067
      1.3491613954          -0.51287353587
P    1   1.00
      0.34829881977          1.0000000
P    1   1.00
      0.83372148304D-01      1.0000000
D    1   1.00
      1.4000000              1.0000000
D    1   1.00
      0.22301361948          1.0000000
****

