%NProcShared=8
%Mem=48GB
%Chk=opt.chk
#p PBEPBE/6-31+G(d,p) Opt=(CalcFC,Tight,MaxCycles=250) EmpiricalDispersion=GD3BJ SCF=(XQC,Tight) Integral=UltraFine NoSymm

PPh3_PFBA_head_axial__unsolvated | opt

0 1
C   1.0136891681  2.0290606411 -1.6458589778
C   1.6345273710  3.2595048474 -1.8754101304
C   2.0507924733  4.0447590825 -0.8034398093
C   1.8433205795  3.6020887081  0.4995284302
C   1.2225686149  2.3732264292  0.7278808871
C   0.8046401467  1.5653606736 -0.3411623875
P   0.0000000000  0.0000000000  0.0000000000
C   0.1271061238 -1.0593849129 -1.4823333788
C  -0.4806842282 -2.4396655583 -1.4322838187
C   0.1929520525 -3.5010712737 -0.8169006310
C  -0.3860253507 -4.7701858308 -0.7585664417
C  -1.6431151656 -4.9919864729 -1.3163857996
C  -2.3226300863 -3.9445229027 -1.9333787983
C  -1.7448793931 -2.6752952127 -1.9916176357
C  -1.7307078987  0.2542255214  0.3477452914
C  -2.5361091316 -0.8119527469  0.7747057841
C  -3.8957265397 -0.6315807580  1.0353537846
C  -4.4745108801  0.6229251242  0.8718299795
C  -3.6928681625  1.6933034197  0.4465676157
C  -2.3327398718  1.5090157925  0.1849277744
C   0.8903892163 -0.7730224337  1.3411313890
C   0.3255438652 -0.9552051004  2.6087334030
C   1.0584933765 -1.5458903848  3.6407483667
C   2.3736399856 -1.9481549598  3.4235843607
C   2.9599561543 -1.7504313622  2.1770438235
C   2.2252140813 -1.1611612158  1.1469591346
H   0.6915582244  1.4471942588 -2.5034601607
H   1.7908521420  3.6060917953 -2.8937915835
H   2.5336110694  5.0014485198 -0.9831885883
H   2.1629507960  4.2118474121  1.3404270283
H   1.0622930886  2.0452319028  1.7529274841
H  -0.3410188414 -0.5166405741 -2.3122728593
H   1.1854592476 -1.1540740058 -1.7543053805
H   1.1749497843 -3.3530898446 -0.3756872470
H   0.1459864965 -5.5854136993 -0.2752149625
H  -2.0927077116 -5.9800174793 -1.2693030121
H  -3.3049615313 -4.1130375035 -2.3664542200
H  -2.2960292337 -1.8658416831 -2.4662108290
H  -2.1037075062 -1.8018848661  0.9086798780
H  -4.4994811064 -1.4731253306  1.3643511049
H  -5.5321940452  0.7663642303  1.0743694554
H  -4.1399959644  2.6753700897  0.3163575415
H  -1.7502211353  2.3637658200 -0.1491543134
H  -0.6894180111 -0.6273453618  2.8149359701
H   0.6017207950 -1.6843706206  4.6172661444
H   2.9435567017 -2.4043936398  4.2282996073
H   3.9914101630 -2.0474537816  2.0073177340
H   2.7049408238 -0.9954500765  0.1851025421
O  -1.0546912612  1.7604166667  2.5201308504
C  -1.4653773009  2.4459049945  3.5014441469
O  -2.6648529877  2.6564700740  3.8495758925
C  -0.3871016359  3.0387594141  4.4145729789
F   0.5492697409  3.7083725342  3.6743367417
F  -0.9235177169  3.9730122285  5.2585017025
C   0.2390419679  1.9201086176  5.1938385062
F   1.1629037183  2.4700551921  6.0635356401
F   0.9841504639  1.0851282509  4.4107398297
C  -0.7682299764  1.1248792774  6.0088849892
F  -1.4883421295  1.8977504896  6.8576017723
F  -1.6339171765  0.3918647842  5.2801847483
F  -0.1124148528  0.2249515406  6.8044021057

