%NProcShared=8
%Mem=30GB
%Chk=opt.chk
#p PBEPBE/6-31+G(d,p) Opt=(CalcFC,Tight,MaxCycles=250) EmpiricalDispersion=GD3BJ SCF=(XQC,Tight) Integral=UltraFine NoSymm

A400_PFNA_head_axial__unsolvated | opt

0 1
C  -0.5566950646 -1.3439910110  0.4592976295
N   0.0000000000  0.0000000000  0.0000000000
C  -0.9594641671  1.0996553712  0.4304987401
C   1.3485241254  0.2247909877  0.6679034873
C   0.1420150732 -0.0422755299 -1.5364310404
C   0.6810559772  1.1994261314 -2.2010522821
C  -0.1877259808  2.2128930114 -2.6370155881
C   0.3139375804  3.3661586663 -3.2424136725
C   1.6859302837  3.5180772901 -3.4257345329
C   2.5587425457  2.5152445016 -3.0115164457
C   2.0609560473  1.3605097366 -2.4057193018
H   0.1424293286 -2.1301424508  0.1588556904
H  -0.6614552734 -1.3248548526  1.5483212912
H  -1.5317440727 -1.4955319577 -0.0133445064
H  -0.5187469867  2.0723055426  0.1973944615
H  -1.9064488236  0.9618991836 -0.0994134768
H  -1.1149952178  1.0177810668  1.5108153356
H   1.2161652754  0.1341287521  1.7506033912
H   2.0463507845 -0.5364429500  0.3071754486
H   1.7059899172  1.2289998720  0.4262394257
H   0.7881721381 -0.8983901726 -1.7707046177
H  -0.8519639239 -0.2766833010 -1.9394119370
H  -1.2658178352  2.1163836549 -2.5238209405
H  -0.3644110007  4.1464237169 -3.5824130181
H   2.0750360572  4.4147647772 -3.9041382234
H   3.6288412348  2.6327438993 -3.1716727930
H   2.7673178724  0.5875890280 -2.1089783858
O  -2.8199056720 -0.2250000000  0.9987527227
C  -4.0076437548 -0.3197695064  1.4194251785
O  -4.3961510685 -0.7340644871  2.5539132178
C  -5.1342097444  0.0667591780  0.4553587050
F  -4.6597101599  0.8413856418 -0.5679236920
F  -6.0644203819  0.8370165039  1.0930054438
C  -5.7573825174 -1.1960876669 -0.0798486590
F  -4.8607868293 -1.8703650118 -0.8717776883
F  -6.7538026268 -0.8271574054 -0.9637732285
C  -6.3686887474 -2.1918382444  0.9024963470
F  -6.9371304236 -3.2002094417  0.1464490079
F  -5.4229196876 -2.8369323587  1.6236139162
C  -7.4698278459 -1.6258584440  1.7857186286
F  -8.3616786211 -0.9428075951  0.9934604852
F  -7.0250413455 -0.7094041909  2.6765226715
C  -8.2680509929 -2.6842962227  2.5358704435
F  -8.9257309173 -3.4922136789  1.6514605456
F  -9.2693929461 -2.0378177911  3.2185058815
C  -7.4808508632 -3.5396375402  3.5114252245
F  -6.6268806819 -4.3539625129  2.8385975702
F  -6.7264106796 -2.7647798419  4.3280391705
C  -8.4116247338 -4.3939104758  4.3434216026
F  -9.2724355097 -3.6226222392  5.0687929054
F  -9.1986804303 -5.1718137015  3.5434627513
C  -7.6069576457 -5.2742837353  5.2799928719
F  -6.7842712252 -6.1244738287  4.6234791005
F  -8.4299311292 -6.0503817318  6.0366379696
F  -6.8495527341 -4.5657153129  6.1474093495

