%NProcShared=8
%Mem=30GB
%Chk=opt.chk
#p PBEPBE/6-31+G(d,p) Opt=(CalcFC,Tight,MaxCycles=250) EmpiricalDispersion=GD3BJ SCF=(XQC,Tight) Integral=UltraFine NoSymm

A400_PFOS_head_tangential__unsolvated | opt

0 1
C  -0.5566950646 -1.3439910110  0.4592976295
N   0.0000000000  0.0000000000  0.0000000000
C  -0.9594641671  1.0996553712  0.4304987401
C   1.3485241254  0.2247909877  0.6679034873
C   0.1420150732 -0.0422755299 -1.5364310404
C   0.6810559772  1.1994261314 -2.2010522821
C  -0.1877259808  2.2128930114 -2.6370155881
C   0.3139375804  3.3661586663 -3.2424136725
C   1.6859302837  3.5180772901 -3.4257345329
C   2.5587425457  2.5152445016 -3.0115164457
C   2.0609560473  1.3605097366 -2.4057193018
H   0.1424293286 -2.1301424508  0.1588556904
H  -0.6614552734 -1.3248548526  1.5483212912
H  -1.5317440727 -1.4955319577 -0.0133445064
H  -0.5187469867  2.0723055426  0.1973944615
H  -1.9064488236  0.9618991836 -0.0994134768
H  -1.1149952178  1.0177810668  1.5108153356
H   1.2161652754  0.1341287521  1.7506033912
H   2.0463507845 -0.5364429500  0.3071754486
H   1.7059899172  1.2289998720  0.4262394257
H   0.7881721381 -0.8983901726 -1.7707046177
H  -0.8519639239 -0.2766833010 -1.9394119370
H  -1.2658178352  2.1163836549 -2.5238209405
H  -0.3644110007  4.1464237169 -3.5824130181
H   2.0750360572  4.4147647772 -3.9041382234
H   3.6288412348  2.6327438993 -3.1716727930
H   2.7673178724  0.5875890280 -2.1089783858
O  -2.8199056720 -0.2250000000  0.9987527227
S  -3.7656482870  0.8471840966  1.3014881413
O  -3.1458442538  2.1645801161  1.4524107155
O  -4.9469610870  0.8519636213  0.4364653302
C  -4.4259459940  0.4453179991  2.9399341520
F  -5.4748918025  1.2615216798  3.2981424589
F  -3.4984309339  0.6435034176  3.9429045909
C  -4.8855704388 -0.9959593792  2.9989139746
F  -5.4466726998 -1.1876110774  4.2542743745
F  -3.8101625479 -1.8484166638  3.0140735137
C  -5.9005254942 -1.5093151315  1.9860558724
F  -5.3883349246 -1.6124749624  0.7398297939
F  -6.1677998363 -2.8212694776  2.3353204690
C  -7.2323920261 -0.7701065932  1.9944718260
F  -7.0862406093  0.5528547026  1.7786659948
F  -7.7962736103 -0.8688864827  3.2348922473
C  -8.1927688294 -1.3459662910  0.9676194176
F  -7.7335249071 -1.1488701669 -0.2974811150
F  -8.2652345194 -2.7076689265  1.1138265883
C  -9.6158328689 -0.8174646596  1.0716886054
F  -10.1666597664 -1.2007689375  2.2615626122
F  -10.3648242357 -1.4624930989  0.1199506996
C  -9.7716915335  0.6742057122  0.8990049477
F  -9.2339489199  1.3361789932  1.9598742957
F  -9.1122591007  1.1057128614 -0.2078558543
C  -11.2454611362  1.0218170164  0.7935338380
F  -11.4312566781  2.3623457129  0.6790779529
F  -11.9486944319  0.6289323034  1.8829308150
F  -11.8421635847  0.4617906925 -0.2853979511

