%NProcShared=8
%Mem=30GB
%Chk=opt.chk
#p PBEPBE/6-31+G(d,p) Opt=(CalcFC,Tight,MaxCycles=250) EmpiricalDispersion=GD3BJ SCF=(XQC,Tight) Integral=UltraFine NoSymm SCRF=(SMD,Solvent=Water)

A400_PFHpA_head_tangential__water | opt

0 1
C  -0.5566950646 -1.3439910110  0.4592976295
N   0.0000000000  0.0000000000  0.0000000000
C  -0.9594641671  1.0996553712  0.4304987401
C   1.3485241254  0.2247909877  0.6679034873
C   0.1420150732 -0.0422755299 -1.5364310404
C   0.6810559772  1.1994261314 -2.2010522821
C  -0.1877259808  2.2128930114 -2.6370155881
C   0.3139375804  3.3661586663 -3.2424136725
C   1.6859302837  3.5180772901 -3.4257345329
C   2.5587425457  2.5152445016 -3.0115164457
C   2.0609560473  1.3605097366 -2.4057193018
H   0.1424293286 -2.1301424508  0.1588556904
H  -0.6614552734 -1.3248548526  1.5483212912
H  -1.5317440727 -1.4955319577 -0.0133445064
H  -0.5187469867  2.0723055426  0.1973944615
H  -1.9064488236  0.9618991836 -0.0994134768
H  -1.1149952178  1.0177810668  1.5108153356
H   1.2161652754  0.1341287521  1.7506033912
H   2.0463507845 -0.5364429500  0.3071754486
H   1.7059899172  1.2289998720  0.4262394257
H   0.7881721381 -0.8983901726 -1.7707046177
H  -0.8519639239 -0.2766833010 -1.9394119370
H  -1.2658178352  2.1163836549 -2.5238209405
H  -0.3644110007  4.1464237169 -3.5824130181
H   2.0750360572  4.4147647772 -3.9041382234
H   3.6288412348  2.6327438993 -3.1716727930
H   2.7673178724  0.5875890280 -2.1089783858
O  -2.8199056720 -0.2250000000  0.9987527227
C  -3.6376833767  0.7021108604  1.2605261395
O  -4.0291029367  1.0940561419  2.4004023159
C  -4.2722688216  1.4362077491  0.0753332037
F  -4.4049841247  2.7682201802  0.3509865612
F  -3.4664484198  1.3678394425 -1.0273050693
C  -5.6169003269  0.8214742515 -0.2068463082
F  -5.4795809292 -0.4849834386 -0.5992967692
F  -6.1401955051  1.4339937577 -1.3263713490
C  -6.6804867963  0.8928946238  0.8841613759
F  -6.3842132467  0.0453271629  1.9102788926
F  -7.8350760746  0.3424458513  0.3519166487
C  -7.0664861834  2.2620083679  1.4386785033
F  -6.0654520336  2.8507345862  2.1319325171
F  -8.0643962232  2.0614823348  2.3646672569
C  -7.5879952342  3.2215323679  0.3923765947
F  -8.5860577302  2.6458884852 -0.3393077248
F  -6.6210488191  3.5587835944 -0.5023213261
C  -8.1123819435  4.4787417342  1.0629322795
F  -8.5803710030  5.3599866967  0.1364196063
F  -9.1485483883  4.2356215344  1.9011569166
F  -7.1699277233  5.1392474608  1.7723569934

