%NProcShared=8
%Mem=30GB
%Chk=opt.chk
#p PBEPBE/Gen 5D 7F SCF=(XQC,Tight) Integral=UltraFine NoSymm EmpiricalDispersion=GD3BJ SCRF=(SMD,Solvent=Water) Opt=(Cartesian,CalcFC,Tight,MaxCycles=300)

A400_PFOA_s1_c2_p2__water | opt | def2-SVPD

0 1
C -1.5001125276 1.4705609743 0.3232784841
N -1.5334601394 -0.0502415300 0.3578010620
C -2.7106275741 -0.4954368264 1.2199233262
C -1.7353510734 -0.5770603765 -1.0552967052
C -0.2420196687 -0.6194562260 0.9829012748
C 1.0513763839 -0.2941859908 0.2790307378
C 1.7828411000 0.8550103511 0.6200118693
C 2.9743428923 1.1599066475 -0.0399552148
C 3.4525362052 0.3190506499 -1.0416260357
C 2.7454954592 -0.8316473871 -1.3807984850
C 1.5536003974 -1.1399846853 -0.7231452102
H -1.2969701399 1.8368793033 1.3337771570
H -0.7246068820 1.7969904643 -0.3743271109
H -2.4756432153 1.8288888451 -0.0201157771
H -2.5675942212 -0.1038477511 2.2314951823
H -3.6323152654 -0.0968719320 0.7852356521
H -2.7382519069 -1.5891376896 1.2314764892
H -0.9513812469 -0.1767586328 -1.7031920182
H -1.6998209013 -1.6699996823 -1.0272595742
H -2.7132559919 -0.2393027420 -1.4125091530
H -0.3706397080 -1.7084027694 1.0375551907
H -0.2034602913 -0.2532789247 2.0171943491
H 1.4447240128 1.5227844099 1.4100523787
H 3.5394441596 2.0495736912 0.2315620420
H 4.3852319973 0.5544919506 -1.5505147384
H 3.1323497281 -1.4931740429 -2.1536470698
H 1.0335684176 -2.0553500981 -0.9989738621
F -4.3643684932 7.1662477001 2.3773370744
F -2.6797607920 7.8796805972 3.5379262441
F -1.6536935279 7.1225429612 1.4712948205
F -1.2658736558 5.4780217565 2.7834485471
F -2.6439945625 5.4463118682 4.9600865153
F -4.5505815808 4.9396747415 4.0123900422
F -3.4978867763 6.1427966659 0.1247934081
F -1.8219983006 4.7701382666 0.1976738840
F -3.5900923448 7.7901025278 5.8492393123
F -4.7895481026 6.0738489754 6.4165569598
F -4.9872825597 4.6358945424 1.7786719942
F -4.2880352400 3.6293438307 -0.0217919281
F -5.4136017213 8.5022096832 3.9081247301
F -6.5513868500 6.6679122895 4.2234473713
F -6.3691695055 8.1417075979 5.8116621270
O -3.4558071411 1.8247584700 1.6953200357
O -2.6455455394 3.4472572912 3.0629584510
C -3.2818511888 6.7249005855 3.0768086671
C -2.2954127440 6.0585466812 2.1208819203
C -3.7294393285 5.9711208522 4.3186168103
C -2.8664239585 5.2297567236 0.9637936698
C -4.4409208028 6.8494588766 5.3356080079
C -3.8666248772 4.1289010734 1.1810829942
C -5.6884190331 7.5280295413 4.8050209134
C -3.2691842664 3.0228269629 2.0454404810

H     0
S    3   1.00
     13.0107010              0.19682158D-01
      1.9622572              0.13796524
      0.44453796             0.47831935
S    1   1.00
      0.12194962             1.0000000
P    1   1.00
      0.8000000              1.0000000
P    1   1.00
      0.11704099050          1.0000000
****
C     0
S    5   1.00
   1238.4016938              0.54568832082D-02
    186.29004992             0.40638409211D-01
     42.251176346            0.18025593888
     11.676557932            0.46315121755
      3.5930506482           0.44087173314
S    1   1.00
      0.40245147363          1.0000000
S    1   1.00
      0.13090182668          1.0000000
S    1   1.00
      0.67053540256D-01      1.0000000
P    3   1.00
      9.4680970621           0.38387871728D-01
      2.0103545142           0.21117025112
      0.54771004707          0.51328172114
P    1   1.00
      0.15268613795          1.0000000
D    1   1.00
      0.8000000              1.0000000
D    1   1.00
      0.11713185140          1.0000000
****
N     0
S    5   1.00
   1712.8415853             -0.53934125305D-02
    257.64812677            -0.40221581118D-01
     58.458245853           -0.17931144990
     16.198367905           -0.46376317823
      5.0052600809          -0.44171422662
S    1   1.00
      0.58731856571          1.0000000
S    1   1.00
      0.18764592253          1.0000000
S    1   1.00
      0.96171241529D-01      1.0000000
P    3   1.00
     13.571470233           -0.40072398852D-01
      2.9257372874          -0.21807045028
      0.79927750754         -0.51294466049
P    1   1.00
      0.21954348034          1.0000000
D    1   1.00
      1.0000000              1.0000000
D    1   1.00
      0.16697708112          1.0000000
****
O     0
S    5   1.00
   2266.1767785             -0.53431809926D-02
    340.87010191            -0.39890039230D-01
     77.363135167           -0.17853911985
     21.479644940           -0.46427684959
      6.6589433124          -0.44309745172
S    1   1.00
      0.80975975668          1.0000000
S    1   1.00
      0.25530772234          1.0000000
S    1   1.00
      0.76572453250D-01      1.0000000
P    3   1.00
     17.721504317            0.43394573193D-01
      3.8635505440           0.23094120765
      1.0480920883           0.51375311064
P    1   1.00
      0.27641544411          1.0000000
P    1   1.00
      0.69002276350D-01      1.0000000
D    1   1.00
      1.2000000              1.0000000
D    1   1.00
      0.17992024323          1.0000000
****
F     0
S    5   1.00
   2894.8325990             -0.53408255515D-02
    435.41939120            -0.39904258866D-01
     98.843328866           -0.17912768038
     27.485198001           -0.46758090825
      8.5405498171          -0.44653131020
S    1   1.00
      1.0654578038           1.0000000
S    1   1.00
      0.33247346748          1.0000000
S    1   1.00
      0.98097752264D-01      1.0000000
P    3   1.00
     22.696633924           -0.45212874436D-01
      4.9872339257          -0.23754317067
      1.3491613954          -0.51287353587
P    1   1.00
      0.34829881977          1.0000000
P    1   1.00
      0.83372148304D-01      1.0000000
D    1   1.00
      1.4000000              1.0000000
D    1   1.00
      0.22301361948          1.0000000
****

