%NProcShared=8
%Mem=30GB
%Chk=opt.chk
#p PBEPBE/6-31+G(d,p) Opt=(CalcFC,Tight,MaxCycles=250) EmpiricalDispersion=GD3BJ SCF=(XQC,Tight) Integral=UltraFine NoSymm

A400_PFOA_head_tangential__unsolvated | opt

0 1
C  -0.5566950646 -1.3439910110  0.4592976295
N   0.0000000000  0.0000000000  0.0000000000
C  -0.9594641671  1.0996553712  0.4304987401
C   1.3485241254  0.2247909877  0.6679034873
C   0.1420150732 -0.0422755299 -1.5364310404
C   0.6810559772  1.1994261314 -2.2010522821
C  -0.1877259808  2.2128930114 -2.6370155881
C   0.3139375804  3.3661586663 -3.2424136725
C   1.6859302837  3.5180772901 -3.4257345329
C   2.5587425457  2.5152445016 -3.0115164457
C   2.0609560473  1.3605097366 -2.4057193018
H   0.1424293286 -2.1301424508  0.1588556904
H  -0.6614552734 -1.3248548526  1.5483212912
H  -1.5317440727 -1.4955319577 -0.0133445064
H  -0.5187469867  2.0723055426  0.1973944615
H  -1.9064488236  0.9618991836 -0.0994134768
H  -1.1149952178  1.0177810668  1.5108153356
H   1.2161652754  0.1341287521  1.7506033912
H   2.0463507845 -0.5364429500  0.3071754486
H   1.7059899172  1.2289998720  0.4262394257
H   0.7881721381 -0.8983901726 -1.7707046177
H  -0.8519639239 -0.2766833010 -1.9394119370
H  -1.2658178352  2.1163836549 -2.5238209405
H  -0.3644110007  4.1464237169 -3.5824130181
H   2.0750360572  4.4147647772 -3.9041382234
H   3.6288412348  2.6327438993 -3.1716727930
H   2.7673178724  0.5875890280 -2.1089783858
F   3.9031422608  5.3913369007  5.5750634498
F   4.3579141233  3.7890929663  4.2094042253
F   1.6399548983  4.4817370491  4.4885542133
F   2.1069780025  6.4951637412  3.9113197460
F   6.1786113758  5.7064163187  4.2106495494
F   5.1829877556  5.5405094863  2.2992984563
F   0.9662609694  5.1905262005  1.9110861938
F   2.9947780073  5.7962474586  1.5005537247
F   5.8389833154  8.0343911512  2.9292533987
F   3.6889166221  7.8092623725  2.8382077147
F   3.9460905059  3.2536830952  1.9031534199
F   2.4115012937  3.4146972323  0.3693087962
F   5.7575034032  7.7599533607  5.7371205787
F   3.5827258297  7.6790052120  5.6481858671
F   4.6306396223  9.4218749437  4.9065586571
O   0.6388379132  2.1850000000  1.9538835996
O   2.2420032193  2.0659816231  3.5605757568
C   3.9177436619  5.0747122834  4.2385815375
C   2.4942954192  5.1865828322  3.6981907629
C   4.9783385647  5.9548996339  3.5851741931
C   2.2633586584  4.8774113088  2.2219056925
C   4.7721474331  7.4593459276  3.5822611138
C   2.6168594509  3.5035796439  1.7186931778
C   4.6844952312  8.0647195498  4.9720987548
C   1.7558642595  2.4801205880  2.4660516292

