%NProcShared=8
%Mem=30GB
%Chk=opt.chk
#p PBEPBE/6-31+G(d,p) Opt=(CalcFC,Tight,MaxCycles=250) EmpiricalDispersion=GD3BJ SCF=(XQC,Tight) Integral=UltraFine NoSymm SCRF=(SMD,Solvent=Water)

free_PFHpA__water | opt

-1 1
O   4.1216471368 -0.0959073209 -0.2277567361
C   3.0152978651 -0.1904863379  0.3754566109
O   2.6343349389 -1.1097259236  1.1603221447
C   1.9785808927  0.9079171084  0.1204918833
F   1.3001962286  1.2037955871  1.2694502877
F   2.5868664676  2.0728813792 -0.2572366091
C   1.0266707742  0.4327856692 -0.9442492481
F   1.6832822225  0.2474582134 -2.1334594135
F   0.1509884395  1.4609955321 -1.2241049825
C   0.1871631498 -0.8070356906 -0.6532427903
F   0.9550893926 -1.9333643089 -0.6804255892
F  -0.6559665356 -0.9813005050 -1.7386546062
C  -0.6977611949 -0.8137807984  0.5908716028
F   0.0121075351 -0.8094496837  1.7421042832
F  -1.3780242945 -2.0098595554  0.6021867053
C  -1.7177752609  0.3024443869  0.6227827531
F  -2.4356045514  0.3369794981 -0.5375555616
F  -1.1221417219  1.5205975209  0.7254071090
C  -2.6610103815  0.1041357975  1.7958909957
F  -3.5838282580  1.1040520278  1.8469485773
F  -3.3670037396 -1.0492943668  1.7150138693
F  -2.0331091051  0.1061617703  2.9931825555

