%NProcShared=8
%Mem=48GB
%Chk=opt.chk
#p PBEPBE/6-31+G(d,p) Opt=(CalcFC,Tight,MaxCycles=250) EmpiricalDispersion=GD3BJ SCF=(XQC,Tight) Integral=UltraFine NoSymm SCRF=(SMD,Solvent=Water)

PCy3_PFOS_head_tangential__water | opt

0 1
C   0.1110865041 -2.7942378084  0.3332582744
C  -0.3301023840 -3.6727578635 -0.8318547640
C  -1.7583104722 -4.1846059876 -0.6545207639
C  -2.6473080080 -3.2318069829  0.1415309407
C  -2.2072386727 -1.7812592718 -0.0122724105
C  -0.7805542485 -1.5490717949  0.5179891753
P   0.0000000000  0.0000000000  0.0000000000
C   1.4081210239  0.3062430990  1.0629130539
C   1.2465849868  0.4035577703  2.5576950091
C   1.2156425803  1.6547996161  3.1888335196
C   1.0752572299  1.7508515140  4.5745265020
C   0.9735109433  0.5962903038  5.3465305269
C   1.0184509798 -0.6535677244  4.7335110417
C   1.1592757748 -0.7489796921  3.3476923340
C   0.6449956093 -0.1753573578 -1.6898805903
C  -0.4221572465 -0.1210823717 -2.7931779601
C   0.1546172482 -0.3303393839 -4.1910756040
C   1.2720139992  0.6575985639 -4.4913449982
C   2.3594116448  0.5842882235 -3.4299150795
C   1.7944753618  0.7942233744 -2.0271934131
C  -1.1920360467  1.3390109355  0.0956418175
C  -1.9161530935  1.4848334369  1.4392731468
C  -3.1346341165  2.4049523734  1.3285755697
C  -2.9319393344  3.5558212187  0.3422438890
C  -1.4593456288  3.9040299780  0.1790316539
C  -0.6456242184  2.7125743690 -0.3357423585
H   0.0715223308 -3.3976193066  1.2498898155
H   1.1592052653 -2.5083791838  0.2040875409
H  -0.2652440025 -3.1042807500 -1.7663601827
H   0.3519017706 -4.5236761582 -0.9417423574
H  -1.7456025936 -5.1585014349 -0.1503021784
H  -2.1942793901 -4.3604020849 -1.6454647613
H  -2.6156064217 -3.5056281292  1.2037737142
H  -3.6892868404 -3.3485641803 -0.1774845288
H  -2.2894209672 -1.4937493964 -1.0604660155
H  -2.9120661782 -1.1380801649  0.5242889286
H  -0.8974764951 -1.4314086286  1.6019195109
H   2.1547966523 -0.4736849863  0.8664716245
H   1.8888621034  1.2324970241  0.7278616028
H   1.2938869250  2.5675314600  2.6022099486
H   1.0456291141  2.7274454096  5.0501824177
H   0.8644323814  0.6701926314  6.4250392827
H   0.9480262781 -1.5562844224  5.3344699873
H   1.2083885351 -1.7338201032  2.8909479511
H   1.0907946019 -1.1762424621 -1.7228891150
H  -0.9437279880  0.8411096371 -2.7628480321
H  -1.1772582184 -0.8895465276 -2.6274566947
H  -0.6415361677 -0.2235091142 -4.9365939540
H   0.5366725615 -1.3550770660 -4.2777667987
H   0.8639161123  1.6749230282 -4.5315066109
H   1.7007294116  0.4443853066 -5.4768877761
H   3.1258163745  1.3405333331 -3.6342824348
H   2.8553930690 -0.3929686360 -3.4799390026
H   1.4549669132  1.8293265823 -1.9290591545
H   2.6145514477  0.6657043639 -1.3139003577
H  -1.9651348439  1.0640460595 -0.6342240089
H  -2.2297801583  0.5189600350  1.8423138973
H  -1.2338179236  1.9064080165  2.1812181138
H  -3.3643913738  2.8046411076  2.3237084933
H  -4.0129253518  1.8249566026  1.0203618660
H  -3.3443456406  3.2738099493 -0.6347785116
H  -3.4970214689  4.4330446724  0.6768052831
H  -1.0559709654  4.2290118329  1.1465219967
H  -1.3431056060  4.7514340457 -0.5061195255
H  -0.6221259669  2.7511276094 -1.4306923258
H   0.3909957790  2.8364943487 -0.0066794780
O   2.8157920472 -1.1645833333 -1.1302923545
S   3.1664118776 -2.5475897205 -1.4465448358
O   2.2899788817 -3.5421992259 -0.8259934109
O   3.4024605274 -2.7839375807 -2.8721001532
C   4.7898626736 -2.8085412868 -0.6860801456
F   5.3521602524 -4.0116823445 -1.0481049749
F   4.7193843683 -2.8801564435  0.6906607253
C   5.7445254938 -1.6923978577 -1.0533082441
F   6.9749251768 -2.0172985729 -0.4982839204
F   5.4123590028 -0.5336890628 -0.3972025237
C   6.0010258544 -1.3666227821 -2.5187868667
F   4.9344672708 -0.7961979055 -3.1213885735
F   6.9544829181 -0.3639351070 -2.5322995474
C   6.5646435367 -2.5228220328 -3.3348180860
F   5.7689335726 -3.6108588695 -3.3004599932
F   7.7478756266 -2.9289323751 -2.7858199616
C   6.8033388586 -2.1174761114 -4.7794921294
F   5.6314350246 -1.8325620136 -5.4085363098
F   7.5239869183 -0.9513433778 -4.8202683743
C   7.5763617272 -3.1395331801 -5.5999131334
F   8.8412673099 -3.2727931827 -5.1015275087
F   7.7525190574 -2.6118336625 -6.8542482603
C   6.9336002060 -4.5003073683 -5.7196766623
F   6.9567075223 -5.1460945375 -4.5216597590
F   5.6283615986 -4.3899482202 -6.0807354169
C   7.6870524469 -5.3292904979 -6.7439087197
F   7.1647512051 -6.5784207424 -6.8512044058
F   8.9936835231 -5.4864425219 -6.4218843236
F   7.6478429033 -4.7927609532 -7.9866378777

