%NProcShared=8
%Mem=30GB
%Chk=opt.chk
#p PBEPBE/Gen 5D 7F SCF=(XQC,Tight) Integral=UltraFine NoSymm EmpiricalDispersion=GD3BJ Opt=(Cartesian,CalcFC,Tight,MaxCycles=300)

A400_PFPeA_s1_c3_p3__unsolvated | opt | def2-SVPD

0 1
C -1.3328226986 -0.0017917514 -1.6515233658
N -1.5561288828 -0.1483040528 -0.1535857397
C -2.8687598092 -0.8908644845 0.0761630564
C -1.6602780163 1.2343728714 0.4729153955
C -0.4231449540 -0.9690183113 0.4986060782
C 0.9715101633 -0.4064986209 0.3862857572
C 1.4761141223 0.4586668701 1.3705755018
C 2.7633858494 0.9866417272 1.2593709369
C 3.5633615477 0.6523496608 0.1697200044
C 3.0819065333 -0.2156520197 -0.8069199206
C 1.7951852533 -0.7457042252 -0.6992831564
H -2.2119675834 0.4852750425 -2.0849355740
H -1.2017251023 -0.9985545694 -2.0826086805
H -0.4493513336 0.6181792172 -1.8239396809
H -3.0314376324 -0.9826779677 1.1542088374
H -2.7939049352 -1.8793552614 -0.3868267064
H -3.6795944155 -0.3170266669 -0.3827177215
H -2.5427383575 1.7337945800 0.0608235080
H -0.7650313891 1.8098085720 0.2238694911
H -1.7624746864 1.1185784559 1.5558345286
H -0.6896994027 -1.0906777819 1.5566616524
H -0.4569784402 -1.9691189228 0.0469554619
H 0.8822376667 0.7253424116 2.2427016924
H 3.1509455236 1.6531793525 2.0275457249
H 4.5693256394 1.0593787646 0.0879558761
H 3.7175573136 -0.4855615240 -1.6481489520
H 1.4545080268 -1.4347613656 -1.4697040056
O -6.2473579253 1.2310370658 0.5782564354
C -5.3842149558 0.6293155276 1.2772286495
O -4.1222801568 0.6766959472 1.1633207259
C -5.8872445700 -0.2412995093 2.4312878977
F -5.2314804362 -1.4395583471 2.4484999847
F -7.2096182788 -0.5536448413 2.2712809748
C -5.6698673180 0.4995086516 3.7230348646
F -6.1487975114 -0.3063855920 4.7407679373
F -6.4845246077 1.6036611126 3.7797637491
C -4.2628173157 0.9197213928 4.1087793270
F -4.3458283334 1.4763000181 5.3782772466
F -3.7891660662 1.9439243862 3.3535628839
C -3.2808093588 -0.2383197027 4.1921832771
F -3.7227032745 -1.2008162759 5.0467312242
F -2.9900497118 -0.8569142704 3.0355652049
F -2.0885844218 0.1827494326 4.7061539186

H     0
S    3   1.00
     13.0107010              0.19682158D-01
      1.9622572              0.13796524
      0.44453796             0.47831935
S    1   1.00
      0.12194962             1.0000000
P    1   1.00
      0.8000000              1.0000000
P    1   1.00
      0.11704099050          1.0000000
****
C     0
S    5   1.00
   1238.4016938              0.54568832082D-02
    186.29004992             0.40638409211D-01
     42.251176346            0.18025593888
     11.676557932            0.46315121755
      3.5930506482           0.44087173314
S    1   1.00
      0.40245147363          1.0000000
S    1   1.00
      0.13090182668          1.0000000
S    1   1.00
      0.67053540256D-01      1.0000000
P    3   1.00
      9.4680970621           0.38387871728D-01
      2.0103545142           0.21117025112
      0.54771004707          0.51328172114
P    1   1.00
      0.15268613795          1.0000000
D    1   1.00
      0.8000000              1.0000000
D    1   1.00
      0.11713185140          1.0000000
****
N     0
S    5   1.00
   1712.8415853             -0.53934125305D-02
    257.64812677            -0.40221581118D-01
     58.458245853           -0.17931144990
     16.198367905           -0.46376317823
      5.0052600809          -0.44171422662
S    1   1.00
      0.58731856571          1.0000000
S    1   1.00
      0.18764592253          1.0000000
S    1   1.00
      0.96171241529D-01      1.0000000
P    3   1.00
     13.571470233           -0.40072398852D-01
      2.9257372874          -0.21807045028
      0.79927750754         -0.51294466049
P    1   1.00
      0.21954348034          1.0000000
D    1   1.00
      1.0000000              1.0000000
D    1   1.00
      0.16697708112          1.0000000
****
O     0
S    5   1.00
   2266.1767785             -0.53431809926D-02
    340.87010191            -0.39890039230D-01
     77.363135167           -0.17853911985
     21.479644940           -0.46427684959
      6.6589433124          -0.44309745172
S    1   1.00
      0.80975975668          1.0000000
S    1   1.00
      0.25530772234          1.0000000
S    1   1.00
      0.76572453250D-01      1.0000000
P    3   1.00
     17.721504317            0.43394573193D-01
      3.8635505440           0.23094120765
      1.0480920883           0.51375311064
P    1   1.00
      0.27641544411          1.0000000
P    1   1.00
      0.69002276350D-01      1.0000000
D    1   1.00
      1.2000000              1.0000000
D    1   1.00
      0.17992024323          1.0000000
****
F     0
S    5   1.00
   2894.8325990             -0.53408255515D-02
    435.41939120            -0.39904258866D-01
     98.843328866           -0.17912768038
     27.485198001           -0.46758090825
      8.5405498171          -0.44653131020
S    1   1.00
      1.0654578038           1.0000000
S    1   1.00
      0.33247346748          1.0000000
S    1   1.00
      0.98097752264D-01      1.0000000
P    3   1.00
     22.696633924           -0.45212874436D-01
      4.9872339257          -0.23754317067
      1.3491613954          -0.51287353587
P    1   1.00
      0.34829881977          1.0000000
P    1   1.00
      0.83372148304D-01      1.0000000
D    1   1.00
      1.4000000              1.0000000
D    1   1.00
      0.22301361948          1.0000000
****

