%NProcShared=8
%Mem=48GB
%Chk=opt.chk
#p PBEPBE/GenECP 5D 7F SCF=(XQC,Tight) Integral=UltraFine NoSymm EmpiricalDispersion=GD3BJ Opt=(Cartesian,CalcFC,Tight,MaxCycles=300)

PC4P-Me_PFPeA_s24_I_c3_p3__unsolvated | opt | def2-SVPD

0 1
C -5.8327468800 -0.2308029540 2.1585341165
C -7.2180559835 -0.1328108582 2.0152395701
C -7.7927283237 1.0556962309 1.5701079356
C -6.9822249264 2.1468492374 1.2660539266
C -5.5973204865 2.0498140239 1.4093025848
C -5.0085647207 0.8604966443 1.8603604860
C -3.5101804852 0.7550508924 1.9848723776
P -2.6069680425 0.0286258414 0.5879540345
C -2.9121615728 -1.7079439323 0.4355894933
C -3.0080460580 -2.3207856882 -0.8198724255
C -3.2213344425 -3.6961546263 -0.9338750309
C -3.3264527782 -4.4828875627 0.2093848399
C -3.2083877402 -3.8946489485 1.4651257400
C -2.9953314371 -2.5189317263 1.5751921535
C -2.9614131753 0.9763882543 -0.8646162290
C -2.0717713150 1.9313523007 -1.3693363326
C -2.3887551611 2.6772568407 -2.5078196803
C -3.6069294180 2.4853629967 -3.1536517778
C -4.5098321287 1.5501721943 -2.6584128948
C -4.1886053779 0.8055797709 -1.5225049636
C -0.8829415779 0.2258152254 1.1251726982
C 0.1427571391 -0.4308027265 0.2056243839
C 1.5704013669 -0.1197626271 0.6497948576
C 2.5957204935 -0.7790270351 -0.2683158483
P 4.3203162216 -0.4454099779 0.1598028080
C 4.5566170642 -1.3088306616 1.7134799033
C 5.4286768815 -1.1506935614 -1.0232101195
C 5.0093860169 -2.1049414587 -1.9562101359
C 5.9109787831 -2.6507932064 -2.8729734368
C 7.2448560703 -2.2505656594 -2.8652128553
C 7.6778234615 -1.3056422020 -1.9392681828
C 6.7753605200 -0.7621813401 -1.0238379810
C 4.5565652260 1.2961992630 0.3105629686
C 4.8459411305 1.9043666431 1.5361777096
C 5.0200514459 3.2874877768 1.6209472308
C 4.9073414585 4.0779510280 0.4795841049
C 4.6212384717 3.4854734189 -0.7473563129
C 4.4469357274 2.1036134792 -0.8296923741
H -5.4058807808 -1.1689081494 2.5023664180
H -7.8479607043 -0.9872381912 2.2480919815
H -8.8706891719 1.1299952916 1.4564800249
H -7.4261203153 3.0729116606 0.9109147589
H -4.9775541232 2.9061475788 1.1513572785
H -3.2677761832 0.2019285438 2.8999095298
H -3.1007210534 1.7604428163 2.1479017920
H -2.9070690627 -1.7310051292 -1.7276597637
H -3.2994904283 -4.1514322706 -1.9175997360
H -3.4909077958 -5.5531840102 0.1210347037
H -3.2764150765 -4.5070498572 2.3603058325
H -2.8876011409 -2.0850005868 2.5654028670
H -1.1180071635 2.1140154596 -0.8839130362
H -1.6830581926 3.4115706864 -2.8874804909
H -3.8540891531 3.0671337550 -4.0372003747
H -5.4674776529 1.4008214987 -3.1496408648
H -4.9129727069 0.0882811842 -1.1397197621
H -0.6722866903 1.2954047894 1.2336885685
H -0.7929417367 -0.2100312219 2.1274198991
H -0.0073182784 -0.0916726973 -0.8246257278
H -0.0133868304 -1.5155051030 0.2011515550
H 1.7213041417 -0.4643876535 1.6784337953
H 1.7246164992 0.9648539206 0.6546783952
H 2.4314274102 -0.4350512621 -1.2961316255
H 2.4410754673 -1.8638950561 -0.2603222132
H 4.3540396582 -2.3765848414 1.5881904464
H 3.8887562828 -0.9266399792 2.4897249223
H 5.5872860436 -1.1968430663 2.0624815365
H 3.9760200406 -2.4378309614 -1.9811691609
H 5.5704033178 -3.3901826844 -3.5930881604
H 7.9455919014 -2.6750271756 -3.5788188359
H 8.7174304596 -0.9896378651 -1.9281635769
H 7.1271653565 -0.0240052117 -0.3061944768
H 4.9394765672 1.3093424980 2.4398241530
H 5.2449552092 3.7476900560 2.5795381860
H 5.0445791144 5.1537478701 0.5460246955
H 4.5361981544 4.0969873923 -1.6415617075
H 4.2291831693 1.6499026624 -1.7943291687
I -2.2422002320 4.0119591747 0.5879540345
O 7.4052517686 -4.1930932912 -1.1934137848
C 7.0418727105 -3.9078489630 -0.0177275662
O 6.0661554805 -3.1808266445 0.3388026455
C 7.8307798117 -4.5268726842 1.1386881470
F 8.0919365399 -3.5887492382 2.0967427702
F 9.0561006202 -4.9667141066 0.7180190525
C 7.0287923462 -5.6624916911 1.7147483902
F 7.7756357546 -6.2081404280 2.7438803783
F 6.9389362015 -6.6886438008 0.8064670220
C 5.6415337487 -5.3853877375 2.2660144146
F 5.1881484354 -6.5738020598 2.8231577708
F 4.7262288385 -5.1308377848 1.2959059687
C 5.6204090847 -4.3385132039 3.3687213042
F 6.4595832069 -4.6747398479 4.3859039410
F 5.9407345840 -3.0851804556 3.0060721996
F 4.3796472026 -4.2638338218 3.9324573055

H     0
S    3   1.00
     13.0107010              0.19682158D-01
      1.9622572              0.13796524
      0.44453796             0.47831935
S    1   1.00
      0.12194962             1.0000000
P    1   1.00
      0.8000000              1.0000000
P    1   1.00
      0.11704099050          1.0000000
****
C     0
S    5   1.00
   1238.4016938              0.54568832082D-02
    186.29004992             0.40638409211D-01
     42.251176346            0.18025593888
     11.676557932            0.46315121755
      3.5930506482           0.44087173314
S    1   1.00
      0.40245147363          1.0000000
S    1   1.00
      0.13090182668          1.0000000
S    1   1.00
      0.67053540256D-01      1.0000000
P    3   1.00
      9.4680970621           0.38387871728D-01
      2.0103545142           0.21117025112
      0.54771004707          0.51328172114
P    1   1.00
      0.15268613795          1.0000000
D    1   1.00
      0.8000000              1.0000000
D    1   1.00
      0.11713185140          1.0000000
****
O     0
S    5   1.00
   2266.1767785             -0.53431809926D-02
    340.87010191            -0.39890039230D-01
     77.363135167           -0.17853911985
     21.479644940           -0.46427684959
      6.6589433124          -0.44309745172
S    1   1.00
      0.80975975668          1.0000000
S    1   1.00
      0.25530772234          1.0000000
S    1   1.00
      0.76572453250D-01      1.0000000
P    3   1.00
     17.721504317            0.43394573193D-01
      3.8635505440           0.23094120765
      1.0480920883           0.51375311064
P    1   1.00
      0.27641544411          1.0000000
P    1   1.00
      0.69002276350D-01      1.0000000
D    1   1.00
      1.2000000              1.0000000
D    1   1.00
      0.17992024323          1.0000000
****
F     0
S    5   1.00
   2894.8325990             -0.53408255515D-02
    435.41939120            -0.39904258866D-01
     98.843328866           -0.17912768038
     27.485198001           -0.46758090825
      8.5405498171          -0.44653131020
S    1   1.00
      1.0654578038           1.0000000
S    1   1.00
      0.33247346748          1.0000000
S    1   1.00
      0.98097752264D-01      1.0000000
P    3   1.00
     22.696633924           -0.45212874436D-01
      4.9872339257          -0.23754317067
      1.3491613954          -0.51287353587
P    1   1.00
      0.34829881977          1.0000000
P    1   1.00
      0.83372148304D-01      1.0000000
D    1   1.00
      1.4000000              1.0000000
D    1   1.00
      0.22301361948          1.0000000
****
P     0
S    5   1.00
   8002.4795106              0.57503489302D-02
   1203.6813590              0.43007628959D-01
    273.44227031             0.19363986252
     76.655541517            0.49651693399
     23.516927435            0.44983262479
S    3   1.00
     39.791683439            0.95188129789D-01
      4.2770343323          -0.57649840368
      1.6940256888          -0.54239583865
S    1   1.00
      0.27567674644          1.0000000
S    1   1.00
      0.10495590099          1.0000000
S    1   1.00
      0.64309734755D-01      1.0000000
P    5   1.00
    219.50755823             0.92100565257D-02
     51.274155030            0.65409765745D-01
     15.921595892            0.24033730279
      5.5069913481           0.46318321788
      1.9537719426           0.37392563382
P    1   1.00
      0.47803397932          1.0000000
P    1   1.00
      0.13657952621          1.0000000
D    1   1.00
      0.4500000              1.0000000
D    1   1.00
      0.99587311089D-01      1.0000000
****
I     0
S    2   1.00
     11.720547572           -0.16160234511D-01
      1.7625986449           0.35271525193
S    6   1.00
    445.90489176             0.20037290389D-02
     23.336842412           -0.14989397324
     19.583446104            0.36436474913
      8.5112089186          -0.75538138199
      2.1996161861           0.82816359356
      1.0668970454           0.42161048110
S    1   1.00
      0.28697476318          1.0000000
S    1   1.00
      0.11227609607          1.0000000
S    1   1.00
      0.45123635492D-01      1.0000000
P    1   1.00
      3.0288656771           1.0000000
P    4   1.00
     20.499027254            0.77159335656D-01
     10.558754576           -0.38370372780
      1.5015895485           0.83554174719
      0.64597173095          0.16787259488
P    1   1.00
      0.34506591841          1.0000000
P    1   1.00
      0.11134513813          1.0000000
P    1   1.00
      0.29795507230D-01      1.0000000
D    5   1.00
     51.235354920            0.40345130346D-02
     15.616239482           -0.50768108881D-02
      4.5266002139           0.29151065356
      2.0529808766           0.51145783605
      0.87640281623          0.31232025297
D    1   1.00
      0.30900000000          1.0000000
D    1   1.00
      0.77987255180D-01      1.0000000
****

I     0
I-ECP     3     28
f potential
  4
2     19.45860900           -21.84204000
2     19.34926000           -28.46819100
2      4.82376700            -0.24371300
2      4.88431500            -0.32080400
s-f potential
  7
2     40.01583500            49.99429300
2     17.42974700           281.02531700
2      9.00548400            61.57332600
2     19.45860900            21.84204000
2     19.34926000            28.46819100
2      4.82376700             0.24371300
2      4.88431500             0.32080400
p-f potential
  8
2     15.35546600            67.44284100
2     14.97183300           134.88113700
2      8.96016400            14.67505100
2      8.25909600            29.37566600
2     19.45860900            21.84204000
2     19.34926000            28.46819100
2      4.82376700             0.24371300
2      4.88431500             0.32080400
d-f potential
  10
2     15.06890800            35.43952900
2     14.55532200            53.17605700
2      6.71864700             9.06719500
2      6.45639300            13.20693700
2      1.19177900             0.08933500
2      1.29115700             0.05238000
2     19.45860900            21.84204000
2     19.34926000            28.46819100
2      4.82376700             0.24371300
2      4.88431500             0.32080400

