%NProcShared=8
%Mem=48GB
%OldChk=freq.chk
%Chk=sp.chk
#p PBE1PBE/Gen 5D 7F SCF=(XQC,Tight) Integral=UltraFine NoSymm EmpiricalDispersion=GD3BJ SP Geom=AllCheck Guess=Read

H     0
S    3   1.00
     34.0613410              0.60251978D-02
      5.1235746              0.45021094D-01
      1.1646626              0.20189726
S    1   1.00
      0.32723041             1.0000000
S    1   1.00
      0.10307241             1.0000000
P    1   1.00
      0.8000000              1.0000000
P    1   1.00
      0.95774129632D-01      1.0000000
****
C     0
S    6   1.00
  13575.3496820              0.22245814352D-03
   2035.2333680              0.17232738252D-02
    463.22562359             0.89255715314D-02
    131.20019598             0.35727984502D-01
     42.853015891            0.11076259931
     15.584185766            0.24295627626
S    2   1.00
      6.2067138508           0.41440263448
      2.5764896527           0.23744968655
S    1   1.00
      0.57696339419          1.0000000
S    1   1.00
      0.22972831358          1.0000000
S    1   1.00
      0.95164440028D-01      1.0000000
S    1   1.00
      0.48475401370D-01      1.0000000
P    4   1.00
     34.697232244            0.53333657805D-02
      7.9582622826           0.35864109092D-01
      2.3780826883           0.14215873329
      0.81433208183          0.34270471845
P    1   1.00
      0.28887547253           .46445822433
P    1   1.00
      0.10056823671           .24955789874
D    1   1.00
      1.09700000             1.0000000
D    1   1.00
      0.31800000             1.0000000
D    1   1.00
      0.90985336424D-01      1.0000000
F    1   1.00
      0.76100000             1.0000000
****
P     0
S    7   1.00
  52426.9992330              0.55207164100D-03
   7863.2660552              0.42678595308D-02
   1789.5227333              0.21931529186D-01
    506.27300165             0.85667168373D-01
    164.60698546             0.24840686605
     58.391918722            0.46336753971
     21.643663201            0.35350558156
S    3   1.00
     99.013837620            0.21895679958D-01
     30.550439817            0.95650470295D-01
      5.4537087661          -0.29454270186
S    2   1.00
      2.6503362563           1.3294381200
      1.2726688867           0.66109396473
S    1   1.00
      0.31645005203          1.0000000
S    1   1.00
      0.11417466938          1.0000000
S    1   1.00
      0.48831315225D-01      1.0000000
P    5   1.00
    472.27219248             0.25710623052D-02
    111.58882756             0.20250297999D-01
     35.445936418            0.91580716787D-01
     12.990776875            0.25749454014
      5.0486221658           0.42862899758
P    1   1.00
      1.9934049566            .34359817849
P    1   1.00
      0.66527284430          1.0000000
P    1   1.00
      0.25516832128          1.0000000
P    1   1.00
      0.90357762251D-01      1.0000000
D    2   1.00
      3.12000000             0.20000000
      0.648000000            1.00000000
D    1   1.00
      0.218000000            1.0000000
D    1   1.00
      0.73569545334D-01      1.0000000
F    1   1.00
      0.452000000            1.0000000
****
Cl     0
S    7   1.00
  69507.9909450              0.54314897497D-03
  10426.1568800              0.41990463961D-02
   2373.2334061              0.21592141679D-01
    671.56420071             0.84598850094D-01
    218.41999790             0.24757249724
     77.572249714            0.47016930228
     28.888815277            0.37436370716
S    3   1.00
    127.10527185             0.25182166603D-01
     39.339582961            0.10786112456
      7.6740679989          -0.27408821574
S    2   1.00
      3.8745627630           1.3213875014
      1.8385832573           0.68636955368
S    1   1.00
      0.50229057542          1.0000000
S    1   1.00
      0.17962723420          1.0000000
S    1   1.00
      0.61133095854D-01      1.0000000
P    5   1.00
    666.50423284             0.23632663836D-02
    157.64241690             0.18879300374D-01
     50.262520978            0.87206341273D-01
     18.536078105            0.25285612970
      7.2940532777           0.43507154820
P    1   1.00
      2.9433248995            .35026513165
P    1   1.00
      1.0404970818           1.0000000
P    1   1.00
      0.38456415080          1.0000000
P    1   1.00
      0.13069642732          1.0000000
P    1   1.00
      0.35381580722D-01      1.0000000
D    2   1.00
      4.61000000             0.20000000
      1.01100000             1.00000000
D    1   1.00
      0.339000000            1.0000000
D    1   1.00
      0.99601358790D-01      1.0000000
F    1   1.00
      0.706000000            1.0000000
****

