%NProcShared=8
%Mem=30GB
%Chk=opt.chk
#p PBEPBE/Gen 5D 7F SCF=(XQC,Tight) Integral=UltraFine NoSymm EmpiricalDispersion=GD3BJ SCRF=(SMD,Solvent=Water) Opt=(Cartesian,CalcFC,Tight,MaxCycles=300)

free_PFNA_c1__water | opt | def2-SVPD

-1 1
O 2.2795665477 2.4335438449 1.1703692937
C 1.8589414247 1.2778654621 0.8872877077
O 0.6494893074 0.8885080597 0.8604808779
C 2.8903032739 0.2136167882 0.4961347796
F 3.8231386746 0.1398298952 1.4990124927
F 3.5669861781 0.6242253751 -0.6172057202
C 2.2796255179 -1.1530412703 0.2746221134
F 1.6003272508 -1.5972969134 1.3675511149
F 3.3443836912 -2.0442460329 0.1856679463
C 1.4720989474 -1.3621360233 -1.0059322453
F 2.3175822463 -1.1346574883 -2.0729097111
F 1.1922504334 -2.7117750443 -1.0978275435
C 0.1794019739 -0.6151778090 -1.2945205973
F -0.2164851533 -0.9933670152 -2.5714330983
F 0.4042682201 0.7076030624 -1.4505559290
C -0.9867461122 -0.9833869978 -0.3728396453
F -0.6824875158 -1.1273401831 0.9309625084
F -1.3614710625 -2.2680005099 -0.7383167009
C -2.2141610692 -0.1035581140 -0.5561518516
F -3.3004942557 -0.7806302323 -0.0459310984
F -2.4844760112 -0.0223176125 -1.9026020573
C -2.2327306364 1.2986211742 0.0242325743
F -3.3735719535 1.9176500329 -0.4723418622
F -1.2298543902 2.0682431975 -0.4524189284
C -2.3662290242 1.3176502146 1.5445178884
F -2.4175327380 2.5916658435 2.0186012695
F -1.4351932961 0.6628779433 2.2520968564
F -3.5569304686 0.7550303526 1.9123885097

C     0
S    5   1.00
   1238.4016938              0.54568832082D-02
    186.29004992             0.40638409211D-01
     42.251176346            0.18025593888
     11.676557932            0.46315121755
      3.5930506482           0.44087173314
S    1   1.00
      0.40245147363          1.0000000
S    1   1.00
      0.13090182668          1.0000000
S    1   1.00
      0.67053540256D-01      1.0000000
P    3   1.00
      9.4680970621           0.38387871728D-01
      2.0103545142           0.21117025112
      0.54771004707          0.51328172114
P    1   1.00
      0.15268613795          1.0000000
D    1   1.00
      0.8000000              1.0000000
D    1   1.00
      0.11713185140          1.0000000
****
O     0
S    5   1.00
   2266.1767785             -0.53431809926D-02
    340.87010191            -0.39890039230D-01
     77.363135167           -0.17853911985
     21.479644940           -0.46427684959
      6.6589433124          -0.44309745172
S    1   1.00
      0.80975975668          1.0000000
S    1   1.00
      0.25530772234          1.0000000
S    1   1.00
      0.76572453250D-01      1.0000000
P    3   1.00
     17.721504317            0.43394573193D-01
      3.8635505440           0.23094120765
      1.0480920883           0.51375311064
P    1   1.00
      0.27641544411          1.0000000
P    1   1.00
      0.69002276350D-01      1.0000000
D    1   1.00
      1.2000000              1.0000000
D    1   1.00
      0.17992024323          1.0000000
****
F     0
S    5   1.00
   2894.8325990             -0.53408255515D-02
    435.41939120            -0.39904258866D-01
     98.843328866           -0.17912768038
     27.485198001           -0.46758090825
      8.5405498171          -0.44653131020
S    1   1.00
      1.0654578038           1.0000000
S    1   1.00
      0.33247346748          1.0000000
S    1   1.00
      0.98097752264D-01      1.0000000
P    3   1.00
     22.696633924           -0.45212874436D-01
      4.9872339257          -0.23754317067
      1.3491613954          -0.51287353587
P    1   1.00
      0.34829881977          1.0000000
P    1   1.00
      0.83372148304D-01      1.0000000
D    1   1.00
      1.4000000              1.0000000
D    1   1.00
      0.22301361948          1.0000000
****

